 DBCSR| CPU Multiplication driver                                           BLAS (U)
 DBCSR| Multrec recursion limit                                              512 (U)
 DBCSR| Multiplication stack size                                           1000 (D)
 DBCSR| Maximum elements for images                                    UNLIMITED (U)
 DBCSR| Multiplicative factor virtual images                                   1 (U)
 DBCSR| Use multiplication densification                                       T (D)
 DBCSR| Multiplication size stacks                                             3 (U)
 DBCSR| Use memory pool for CPU allocation                                     F (U)
 DBCSR| Number of 3D layers                                               SINGLE (U)
 DBCSR| Use MPI memory allocation                                              F (U)
 DBCSR| Use RMA algorithm                                                      F (U)
 DBCSR| Use Communication thread                                               T (U)
 DBCSR| Communication thread load                                             75 (D)
 DBCSR| MPI: My process id                                                     0
 DBCSR| MPI: Number of processes                                              48
 DBCSR| OMP: Current number of threads                                         4
 DBCSR| OMP: Max number of threads                                             4
 DBCSR| Split modifier for TAS multiplication algorithm                  1.0E+00 (U)


  **** **** ******  **  PROGRAM STARTED AT               2025-03-26 05:28:42.471
 ***** ** ***  *** **   PROGRAM STARTED ON                          i05r08c03s06
 **    ****   ******    PROGRAM STARTED BY                               di38fab
 ***** **    ** ** **   PROGRAM PROCESS ID                               3657494
  **** **  *******  **  PROGRAM STARTED IN /hppfs/scratch/04/di38fab/05_MOL/W4-1
                                           1+ALK/nao/TZVP/GW+BSE/1e-4

 CP2K| version string:                 CP2K version 2025.1 (Development Version)
 CP2K| source code revision number:                                  git:d2e611a
 CP2K| cp2kflags: omp libint fftw3 libxc parallel scalapack max_contr=4         
 CP2K| is freely available from                            https://www.cp2k.org/
 CP2K| Program compiled at                       Thu 06 Mar 2025 05:09:20 PM CET
 CP2K| Program compiled on                                               login02
 CP2K| Program compiled for                                        Supermuc-foss
 CP2K| Data directory path                  /hppfs/work/pn36zo/di38fab/cp2k/data
 CP2K| Input file name                                                    GW.inp

 GLOBAL| Force Environment number                                              1
 GLOBAL| Basis set file name            /hppfs/scratch/04/di38fab/04_TMD/BASIS_A
 GLOBAL| Potential file name            /hppfs/work/pn36zo/di38fab/cp2k/data/ALL
 GLOBAL| MM Potential file name                                     MM_POTENTIAL
 GLOBAL| Coordinate file name                                      __STD_INPUT__
 GLOBAL| Method name                                                        CP2K
 GLOBAL| Project name                                                       MoS2
 GLOBAL| Run type                                                         ENERGY
 GLOBAL| FFT library                                                       FFTW3
 GLOBAL| Diagonalization library                                       ScaLAPACK
 GLOBAL| DGEMM library                                                      BLAS
 GLOBAL| Orthonormality check for eigenvectors                          DISABLED
 GLOBAL| Matrix multiplication library                                 ScaLAPACK
 GLOBAL| All-to-all communication in single precision                          F
 GLOBAL| FFTs using library dependent lengths                                  F
 GLOBAL| Grid backend                                                       AUTO
 GLOBAL| Global print level                                               MEDIUM
 GLOBAL| MPI I/O enabled                                                       T
 GLOBAL| Total number of message passing processes                            48
 GLOBAL| Number of threads for this process                                    4
 GLOBAL| This output is from process                                           0
 GLOBAL| OpenMP stack size per thread (OMP_STACKSIZE)                    default
 GLOBAL| CPU model name             Intel(R) Xeon(R) Platinum 8174 CPU @ 3.10GHz

 MEMORY| system memory details [Kb]
 MEMORY|                        rank 0           min           max       average
 MEMORY| MemTotal             98436664      98433600      98436664      98435896
 MEMORY| MemFree              83743344      83743344      83879396      83819459
 MEMORY| Buffers                     0             0             0             0
 MEMORY| Cached                2403732       2377124       2403732       2394870
 MEMORY| Slab                  1235724       1229892       1235724       1233150
 MEMORY| SReclaimable           273668        268136        276648        272403
 MEMORY| MemLikelyFree        86420744      86420744      86549180      86486732


 *** Fundamental physical constants (SI units) ***

 *** Literature: B. J. Mohr and B. N. Taylor,
 ***             CODATA recommended values of the fundamental physical
 ***             constants: 2006, Web Version 5.1
 ***             http://physics.nist.gov/constants

 Speed of light in vacuum [m/s]                             2.99792458000000E+08
 Magnetic constant or permeability of vacuum [N/A**2]       1.25663706143592E-06
 Electric constant or permittivity of vacuum [F/m]          8.85418781762039E-12
 Planck constant (h) [J*s]                                  6.62606896000000E-34
 Planck constant (h-bar) [J*s]                              1.05457162825177E-34
 Elementary charge [C]                                      1.60217648700000E-19
 Electron mass [kg]                                         9.10938215000000E-31
 Electron g factor [ ]                                     -2.00231930436220E+00
 Proton mass [kg]                                           1.67262163700000E-27
 Fine-structure constant                                    7.29735253760000E-03
 Rydberg constant [1/m]                                     1.09737315685270E+07
 Avogadro constant [1/mol]                                  6.02214179000000E+23
 Boltzmann constant [J/K]                                   1.38065040000000E-23
 Atomic mass unit [kg]                                      1.66053878200000E-27
 Bohr radius [m]                                            5.29177208590000E-11

 *** Conversion factors ***

 [u] -> [a.u.]                                              1.82288848426455E+03
 [Angstrom] -> [Bohr] = [a.u.]                              1.88972613288564E+00
 [a.u.] = [Bohr] -> [Angstrom]                              5.29177208590000E-01
 [a.u.] -> [s]                                              2.41888432650478E-17
 [a.u.] -> [fs]                                             2.41888432650478E-02
 [a.u.] -> [J]                                              4.35974393937059E-18
 [a.u.] -> [N]                                              8.23872205491840E-08
 [a.u.] -> [K]                                              3.15774647902944E+05
 [a.u.] -> [kJ/mol]                                         2.62549961709828E+03
 [a.u.] -> [kcal/mol]                                       6.27509468713739E+02
 [a.u.] -> [Pa]                                             2.94210107994716E+13
 [a.u.] -> [bar]                                            2.94210107994716E+08
 [a.u.] -> [atm]                                            2.90362800883016E+08
 [a.u.] -> [eV]                                             2.72113838565563E+01
 [a.u.] -> [Hz]                                             6.57968392072181E+15
 [a.u.] -> [1/cm] (wave numbers)                            2.19474631370540E+05
 [a.u./Bohr**2] -> [1/cm]                                   5.14048714338585E+03
 

 CELL_TOP| Volume [angstrom^3]:                                     27000.000000
 CELL_TOP| Vector a [angstrom    30.000     0.000     0.000   |a| =    30.000000
 CELL_TOP| Vector b [angstrom     0.000    30.000     0.000   |b| =    30.000000
 CELL_TOP| Vector c [angstrom     0.000     0.000    30.000   |c| =    30.000000
 CELL_TOP| Angle (b,c), alpha [degree]:                                90.000000
 CELL_TOP| Angle (a,c), beta  [degree]:                                90.000000
 CELL_TOP| Angle (a,b), gamma [degree]:                                90.000000
 CELL_TOP| Numerically orthorhombic:                                         YES
 CELL_TOP| Periodicity                                                      NONE

 GENERATE|  Preliminary Number of Bonds generated:                             0
 GENERATE|  Achieved consistency in connectivity generation.

 CELL| Volume [angstrom^3]:                                         27000.000000
 CELL| Vector a [angstrom]:      30.000     0.000     0.000   |a| =    30.000000
 CELL| Vector b [angstrom]:       0.000    30.000     0.000   |b| =    30.000000
 CELL| Vector c [angstrom]:       0.000     0.000    30.000   |c| =    30.000000
 CELL| Angle (b,c), alpha [degree]:                                    90.000000
 CELL| Angle (a,c), beta  [degree]:                                    90.000000
 CELL| Angle (a,b), gamma [degree]:                                    90.000000
 CELL| Numerically orthorhombic:                                             YES
 CELL| Periodicity                                                          NONE

 CELL_REF| Volume [angstrom^3]:                                     27000.000000
 CELL_REF| Vector a [angstrom    30.000     0.000     0.000   |a| =    30.000000
 CELL_REF| Vector b [angstrom     0.000    30.000     0.000   |b| =    30.000000
 CELL_REF| Vector c [angstrom     0.000     0.000    30.000   |c| =    30.000000
 CELL_REF| Angle (b,c), alpha [degree]:                                90.000000
 CELL_REF| Angle (a,c), beta  [degree]:                                90.000000
 CELL_REF| Angle (a,b), gamma [degree]:                                90.000000
 CELL_REF| Numerically orthorhombic:                                         YES
 CELL_REF| Periodicity                                                      NONE

 *******************************************************************************
 *******************************************************************************
 **                                                                           **
 **     #####                         ##              ##                      **
 **    ##   ##            ##          ##              ##                      **
 **   ##     ##                       ##            ######                    **
 **   ##     ##  ##   ##  ##   #####  ##  ##   ####   ##    #####    #####    **
 **   ##     ##  ##   ##  ##  ##      ## ##   ##      ##   ##   ##  ##   ##   **
 **   ##  ## ##  ##   ##  ##  ##      ####     ###    ##   ######   ######    **
 **    ##  ###   ##   ##  ##  ##      ## ##      ##   ##   ##       ##        **
 **     #######   #####   ##   #####  ##  ##  ####    ##    #####   ##        **
 **           ##                                                    ##        **
 **                                                                           **
 **                                                ... make the atoms dance   **
 **                                                                           **
 **            Copyright (C) by CP2K developers group (2000-2025)             **
 **                      J. Chem. Phys. 152, 194103 (2020)                    **
 **                                                                           **
 *******************************************************************************

 DFT| Spin restricted Kohn-Sham (RKS) calculation                            RKS
 DFT| Multiplicity                                                             2
 DFT| Number of spin states                                                    1
 DFT| Charge                                                                   0
 DFT| Self-interaction correction (SIC)                                       NO
 DFT| Cutoffs: density                                              1.000000E-10
 DFT|          gradient                                             1.000000E-10
 DFT|          tau                                                  1.000000E-10
 DFT|          cutoff_smoothing_range                               0.000000E+00
 DFT| XC density smoothing                                                  NONE
 DFT| XC derivatives                                                          PW

 FUNCTIONAL| PBE:
 FUNCTIONAL| J.P.Perdew, K.Burke, M.Ernzerhof, Phys. Rev. Letter, vol. 77, n 18,
 FUNCTIONAL|  pp. 3865-3868, (1996)sx=0.750sc=1.000{spin unpolarized}           


 QS| Method:                                                                GAPW
 QS| Density plane wave grid type                        NON-SPHERICAL FULLSPACE
 QS| Number of grid levels:                                                    4
 QS| Density cutoff [a.u.]:                                                250.0
 QS| Multi grid cutoff [a.u.]: 1) grid level                               250.0
 QS|                           2) grid level                                83.3
 QS|                           3) grid level                                27.8
 QS|                           4) grid level                                 9.3
 QS| Grid level progression factor:                                          3.0
 QS| Relative density cutoff [a.u.]:                                        50.0
 QS| Interaction thresholds: eps_pgf_orb:                                1.0E-12
 QS|                         eps_filter_matrix:                          0.0E+00
 QS|                         eps_core_charge:                            1.0E-14
 QS|                         eps_rho_gspace:                             1.0E-12
 QS|                         eps_rho_rspace:                             1.0E-12
 QS|                         eps_gvg_rspace:                             1.0E-06
 QS|                         eps_ppl:                                    1.0E-02
 QS|                         eps_ppnl:                                   1.0E-08
 QS| GAPW|      One center basis from orbital basis primitives
 QS| GAPW|                   eps_fit:                                    1.0E-04
 QS| GAPW|                   eps_iso:                                    1.0E-12
 QS| GAPW|                   eps_svd:                                    1.0E-08
 QS| GAPW|                   eps_cpc:                                    1.0E-12
 QS| GAPW|   atom-r-grid: quadrature:                                     GC_LOG
 QS| GAPW|      atom-s-grid:  max l :                                          8
 QS| GAPW|      max_l_rho0 :                                                   2


 ATOMIC KIND INFORMATION

  1. Atomic kind: na                                    Number of atoms:       1

     Orbital Basis Set                                        aug-TZVP-MOLOPT-ae

       Number of orbital shell sets:                                           3
       Number of orbital shells:                                              16
       Number of primitive Cartesian functions:                               18
       Number of Cartesian basis functions:                                   55
       Number of spherical basis functions:                                   48
       Norm type:                                                              2

       Normalised Cartesian orbitals:

                        Set   Shell   Orbital            Exponent    Coefficient

                          1       1    1s                0.024986      -0.005225
                                                         0.042000       0.000000
                                                         0.071573       0.019280
                                                         0.317258       0.069068
                                                         0.895326       0.381507
                                                         1.873645       0.199315

                          1       2    2s                0.024986       0.045201
                                                         0.042000       0.000000
                                                         0.071573       0.013618
                                                         0.317258      -0.183986
                                                         0.895326       0.270885
                                                         1.873645      -0.061563

                          1       3    3s                0.024986       0.002560
                                                         0.042000       0.000000
                                                         0.071573       0.096841
                                                         0.317258       0.026969
                                                         0.895326      -0.223817
                                                         1.873645      -0.048323

                          1       4    4s                0.024986       0.039399
                                                         0.042000       0.007240
                                                         0.071573       0.000972
                                                         0.317258       0.002969
                                                         0.895326       0.006465
                                                         1.873645       0.011248

                          1       5    2px               0.024986       0.003396
                                                         0.042000       0.000000
                                                         0.071573       0.018577
                                                         0.317258       0.198864
                                                         0.895326      -0.211374
                                                         1.873645       1.117467
                          1       5    2py               0.024986       0.003396
                                                         0.042000       0.000000
                                                         0.071573       0.018577
                                                         0.317258       0.198864
                                                         0.895326      -0.211374
                                                         1.873645       1.117467
                          1       5    2pz               0.024986       0.003396
                                                         0.042000       0.000000
                                                         0.071573       0.018577
                                                         0.317258       0.198864
                                                         0.895326      -0.211374
                                                         1.873645       1.117467

                          1       6    3px               0.024986       0.012460
                                                         0.042000       0.000000
                                                         0.071573       0.009237
                                                         0.317258      -0.153981
                                                         0.895326      -0.003138
                                                         1.873645      -0.063665
                          1       6    3py               0.024986       0.012460
                                                         0.042000       0.000000
                                                         0.071573       0.009237
                                                         0.317258      -0.153981
                                                         0.895326      -0.003138
                                                         1.873645      -0.063665
                          1       6    3pz               0.024986       0.012460
                                                         0.042000       0.000000
                                                         0.071573       0.009237
                                                         0.317258      -0.153981
                                                         0.895326      -0.003138
                                                         1.873645      -0.063665

                          1       7    4px               0.024986      -0.003098
                                                         0.042000       0.000000
                                                         0.071573       0.050783
                                                         0.317258      -0.007155
                                                         0.895326       0.113763
                                                         1.873645      -2.257376
                          1       7    4py               0.024986      -0.003098
                                                         0.042000       0.000000
                                                         0.071573       0.050783
                                                         0.317258      -0.007155
                                                         0.895326       0.113763
                                                         1.873645      -2.257376
                          1       7    4pz               0.024986      -0.003098
                                                         0.042000       0.000000
                                                         0.071573       0.050783
                                                         0.317258      -0.007155
                                                         0.895326       0.113763
                                                         1.873645      -2.257376

                          1       8    5px               0.024986       0.027296
                                                         0.042000      -0.030418
                                                         0.071573       0.000357
                                                         0.317258       0.002297
                                                         0.895326       0.008403
                                                         1.873645       0.021151
                          1       8    5py               0.024986       0.027296
                                                         0.042000      -0.030418
                                                         0.071573       0.000357
                                                         0.317258       0.002297
                                                         0.895326       0.008403
                                                         1.873645       0.021151
                          1       8    5pz               0.024986       0.027296
                                                         0.042000      -0.030418
                                                         0.071573       0.000357
                                                         0.317258       0.002297
                                                         0.895326       0.008403
                                                         1.873645       0.021151

                          1       9    3dx2              0.024986      -0.000170
                                                         0.042000       0.000000
                                                         0.071573       0.001973
                                                         0.317258      -0.012062
                                                         0.895326       0.484105
                                                         1.873645       3.492100
                          1       9    3dxy              0.024986      -0.000295
                                                         0.042000       0.000000
                                                         0.071573       0.003417
                                                         0.317258      -0.020892
                                                         0.895326       0.838495
                                                         1.873645       6.048495
                          1       9    3dxz              0.024986      -0.000295
                                                         0.042000       0.000000
                                                         0.071573       0.003417
                                                         0.317258      -0.020892
                                                         0.895326       0.838495
                                                         1.873645       6.048495
                          1       9    3dy2              0.024986      -0.000170
                                                         0.042000       0.000000
                                                         0.071573       0.001973
                                                         0.317258      -0.012062
                                                         0.895326       0.484105
                                                         1.873645       3.492100
                          1       9    3dyz              0.024986      -0.000295
                                                         0.042000       0.000000
                                                         0.071573       0.003417
                                                         0.317258      -0.020892
                                                         0.895326       0.838495
                                                         1.873645       6.048495
                          1       9    3dz2              0.024986      -0.000170
                                                         0.042000       0.000000
                                                         0.071573       0.001973
                                                         0.317258      -0.012062
                                                         0.895326       0.484105
                                                         1.873645       3.492100

                          1      10    4dx2              0.024986       0.000075
                                                         0.042000       0.000000
                                                         0.071573       0.004609
                                                         0.317258       0.199620
                                                         0.895326      -0.212746
                                                         1.873645       0.510468
                          1      10    4dxy              0.024986       0.000130
                                                         0.042000       0.000000
                                                         0.071573       0.007983
                                                         0.317258       0.345752
                                                         0.895326      -0.368487
                                                         1.873645       0.884156
                          1      10    4dxz              0.024986       0.000130
                                                         0.042000       0.000000
                                                         0.071573       0.007983
                                                         0.317258       0.345752
                                                         0.895326      -0.368487
                                                         1.873645       0.884156
                          1      10    4dy2              0.024986       0.000075
                                                         0.042000       0.000000
                                                         0.071573       0.004609
                                                         0.317258       0.199620
                                                         0.895326      -0.212746
                                                         1.873645       0.510468
                          1      10    4dyz              0.024986       0.000130
                                                         0.042000       0.000000
                                                         0.071573       0.007983
                                                         0.317258       0.345752
                                                         0.895326      -0.368487
                                                         1.873645       0.884156
                          1      10    4dz2              0.024986       0.000075
                                                         0.042000       0.000000
                                                         0.071573       0.004609
                                                         0.317258       0.199620
                                                         0.895326      -0.212746
                                                         1.873645       0.510468

                          1      11    5dx2              0.024986       0.001238
                                                         0.042000       0.000000
                                                         0.071573       0.010869
                                                         0.317258      -0.048337
                                                         0.895326      -0.029701
                                                         1.873645      -0.372455
                          1      11    5dxy              0.024986       0.002144
                                                         0.042000       0.000000
                                                         0.071573       0.018826
                                                         0.317258      -0.083722
                                                         0.895326      -0.051444
                                                         1.873645      -0.645112
                          1      11    5dxz              0.024986       0.002144
                                                         0.042000       0.000000
                                                         0.071573       0.018826
                                                         0.317258      -0.083722
                                                         0.895326      -0.051444
                                                         1.873645      -0.645112
                          1      11    5dy2              0.024986       0.001238
                                                         0.042000       0.000000
                                                         0.071573       0.010869
                                                         0.317258      -0.048337
                                                         0.895326      -0.029701
                                                         1.873645      -0.372455
                          1      11    5dyz              0.024986       0.002144
                                                         0.042000       0.000000
                                                         0.071573       0.018826
                                                         0.317258      -0.083722
                                                         0.895326      -0.051444
                                                         1.873645      -0.645112
                          1      11    5dz2              0.024986       0.001238
                                                         0.042000       0.000000
                                                         0.071573       0.010869
                                                         0.317258      -0.048337
                                                         0.895326      -0.029701
                                                         1.873645      -0.372455

                          1      12    6dx2              0.024986       0.005668
                                                         0.042000      -0.011682
                                                         0.071573       0.000449
                                                         0.317258       0.006086
                                                         0.895326       0.037398
                                                         1.873645       0.136172
                          1      12    6dxy              0.024986       0.009817
                                                         0.042000      -0.020234
                                                         0.071573       0.000778
                                                         0.317258       0.010542
                                                         0.895326       0.064776
                                                         1.873645       0.235856
                          1      12    6dxz              0.024986       0.009817
                                                         0.042000      -0.020234
                                                         0.071573       0.000778
                                                         0.317258       0.010542
                                                         0.895326       0.064776
                                                         1.873645       0.235856
                          1      12    6dy2              0.024986       0.005668
                                                         0.042000      -0.011682
                                                         0.071573       0.000449
                                                         0.317258       0.006086
                                                         0.895326       0.037398
                                                         1.873645       0.136172
                          1      12    6dyz              0.024986       0.009817
                                                         0.042000      -0.020234
                                                         0.071573       0.000778
                                                         0.317258       0.010542
                                                         0.895326       0.064776
                                                         1.873645       0.235856
                          1      12    6dz2              0.024986       0.005668
                                                         0.042000      -0.011682
                                                         0.071573       0.000449
                                                         0.317258       0.006086
                                                         0.895326       0.037398
                                                         1.873645       0.136172

                          1      13    4fx3              0.024986      -0.000302
                                                         0.042000       0.000373
                                                         0.071573       0.001239
                                                         0.317258       0.035311
                                                         0.895326       0.364496
                                                         1.873645       1.919912
                          1      13    4fx2y             0.024986      -0.000675
                                                         0.042000       0.000835
                                                         0.071573       0.002770
                                                         0.317258       0.078958
                                                         0.895326       0.815038
                                                         1.873645       4.293054
                          1      13    4fx2z             0.024986      -0.000675
                                                         0.042000       0.000835
                                                         0.071573       0.002770
                                                         0.317258       0.078958
                                                         0.895326       0.815038
                                                         1.873645       4.293054
                          1      13    4fxy2             0.024986      -0.000675
                                                         0.042000       0.000835
                                                         0.071573       0.002770
                                                         0.317258       0.078958
                                                         0.895326       0.815038
                                                         1.873645       4.293054
                          1      13    4fxyz             0.024986      -0.001169
                                                         0.042000       0.001446
                                                         0.071573       0.004797
                                                         0.317258       0.136760
                                                         0.895326       1.411687
                                                         1.873645       7.435787
                          1      13    4fxz2             0.024986      -0.000675
                                                         0.042000       0.000835
                                                         0.071573       0.002770
                                                         0.317258       0.078958
                                                         0.895326       0.815038
                                                         1.873645       4.293054
                          1      13    4fy3              0.024986      -0.000302
                                                         0.042000       0.000373
                                                         0.071573       0.001239
                                                         0.317258       0.035311
                                                         0.895326       0.364496
                                                         1.873645       1.919912
                          1      13    4fy2z             0.024986      -0.000675
                                                         0.042000       0.000835
                                                         0.071573       0.002770
                                                         0.317258       0.078958
                                                         0.895326       0.815038
                                                         1.873645       4.293054
                          1      13    4fyz2             0.024986      -0.000675
                                                         0.042000       0.000835
                                                         0.071573       0.002770
                                                         0.317258       0.078958
                                                         0.895326       0.815038
                                                         1.873645       4.293054
                          1      13    4fz3              0.024986      -0.000302
                                                         0.042000       0.000373
                                                         0.071573       0.001239
                                                         0.317258       0.035311
                                                         0.895326       0.364496
                                                         1.873645       1.919912

                          2       1    1s              138.067005      -0.426870
                                                        32.126148       4.193518
                                                         8.852389       2.640785
                                                         3.035254      -3.760766
                                                         0.925242       0.985667

                          2       2    2px             138.067005       4.103872
                                                        32.126148       5.975267
                                                         8.852389       5.098581
                                                         3.035254       2.333753
                                                         0.925242       0.667881
                          2       2    2py             138.067005       4.103872
                                                        32.126148       5.975267
                                                         8.852389       5.098581
                                                         3.035254       2.333753
                                                         0.925242       0.667881
                          2       2    2pz             138.067005       4.103872
                                                        32.126148       5.975267
                                                         8.852389       5.098581
                                                         3.035254       2.333753
                                                         0.925242       0.667881

                          3       1    1s            26041.211692       0.902745
                                                      3906.215052       1.571184
                                                       889.014603       2.741049
                                                       251.476040       4.006166
                                                        81.689666       4.997294
                                                        28.448251       4.049460
                                                        10.256970       1.266611

     RI Auxiliary Basis Set             RI_aug-TZVP-MOLOPT-ae_N_RI_065_s_p_d_f_g

       Number of orbital shell sets:                                          19
       Number of orbital shells:                                              19
       Number of primitive Cartesian functions:                               19
       Number of Cartesian basis functions:                                   81
       Number of spherical basis functions:                                   65
       Norm type:                                                              2

       Normalised Cartesian orbitals:

                        Set   Shell   Orbital            Exponent    Coefficient

                          1       1    1s                0.108793       0.135008

                          2       1    8px               0.163046       0.147682
                          2       1    8py               0.163046       0.147682
                          2       1    8pz               0.163046       0.147682

                          3       1    2s                0.370248       0.338283

                          4       1   13dx2              0.396977       0.326775
                          4       1   13dxy              0.396977       0.565992
                          4       1   13dxz              0.396977       0.565992
                          4       1   13dy2              0.396977       0.326775
                          4       1   13dyz              0.396977       0.565992
                          4       1   13dz2              0.396977       0.326775

                          5       1    9px               0.672961       0.868816
                          5       1    9py               0.672961       0.868816
                          5       1    9pz               0.672961       0.868816

                          6       1   17fx3              0.886994       1.124024
                          6       1   17fx2y             0.886994       2.513393
                          6       1   17fx2z             0.886994       2.513393
                          6       1   17fxy2             0.886994       2.513393
                          6       1   17fxyz             0.886994       4.353325
                          6       1   17fxz2             0.886994       2.513393
                          6       1   17fy3              0.886994       1.124024
                          6       1   17fy2z             0.886994       2.513393
                          6       1   17fyz2             0.886994       2.513393
                          6       1   17fz3              0.886994       1.124024

                          7       1    3s                1.172800       0.803208

                          8       1   14dx2              1.532622       3.474728
                          8       1   14dxy              1.532622       6.018405
                          8       1   14dxz              1.532622       6.018405
                          8       1   14dy2              1.532622       3.474728
                          8       1   14dyz              1.532622       6.018405
                          8       1   14dz2              1.532622       3.474728

                          9       1   10px               2.460088       4.391657
                          9       1   10py               2.460088       4.391657
                          9       1   10pz               2.460088       4.391657

                         10       1   19gx4              2.875982      20.328120
                         10       1   19gx3y             2.875982      53.783150
                         10       1   19gx3z             2.875982      53.783150
                         10       1   19gx2y2            2.875982      69.433748
                         10       1   19gx2yz            2.875982     120.262780
                         10       1   19gx2z2            2.875982      69.433748
                         10       1   19gxy3             2.875982      53.783150
                         10       1   19gxy2z            2.875982     120.262780
                         10       1   19gxyz2            2.875982     120.262780
                         10       1   19gxz3             2.875982      53.783150
                         10       1   19gy4              2.875982      20.328120
                         10       1   19gy3z             2.875982      53.783150
                         10       1   19gy2z2            2.875982      69.433748
                         10       1   19gyz3             2.875982      53.783150
                         10       1   19gz4              2.875982      20.328120

                         11       1   15dx2              2.979656      11.122440
                         11       1   15dxy              2.979656      19.264632
                         11       1   15dxz              2.979656      19.264632
                         11       1   15dy2              2.979656      11.122440
                         11       1   15dyz              2.979656      19.264632
                         11       1   15dz2              2.979656      11.122440

                         12       1    4s                3.026059       1.635190

                         13       1   18fx3              3.389101      22.942710
                         13       1   18fx2y             3.389101      51.301459
                         13       1   18fx2z             3.389101      51.301459
                         13       1   18fxy2             3.389101      51.301459
                         13       1   18fxyz             3.389101      88.856734
                         13       1   18fxz2             3.389101      51.301459
                         13       1   18fy3              3.389101      22.942710
                         13       1   18fy2z             3.389101      51.301459
                         13       1   18fyz2             3.389101      51.301459
                         13       1   18fz3              3.389101      22.942710

                         14       1   11px               5.359135      11.622737
                         14       1   11py               5.359135      11.622737
                         14       1   11pz               5.359135      11.622737

                         15       1    5s                8.910996       3.675825

                         16       1   12px              12.419193      33.232024
                         16       1   12py              12.419193      33.232024
                         16       1   12pz              12.419193      33.232024

                         17       1   16dx2             17.299972     241.539911
                         17       1   16dxy             17.299972     418.359398
                         17       1   16dxz             17.299972     418.359398
                         17       1   16dy2             17.299972     241.539911
                         17       1   16dyz             17.299972     418.359398
                         17       1   16dz2             17.299972     241.539911

                         18       1    6s               34.851213      10.222886

                         19       1    7s              121.042029      26.008316

       Atomic covalent radius [Angstrom]:                                  1.540

       Atomic van der Waals radius [Angstrom]:                             2.270

     The atoms of this atomic kind are PAW atoms (GAPW):
       Hard Gaussian function radius:                                      1.512
       Rho0 radius:                                                        1.512
       Maximum GTO radius used for PAW projector construction:            24.566

     GAPW Soft Basis Set                                 aug-TZVP-MOLOPT-ae_soft

       Number of orbital shell sets:                                           3
       Number of orbital shells:                                              16
       Number of primitive Cartesian functions:                                8
       Number of Cartesian basis functions:                                   55
       Number of spherical basis functions:                                   48
       Norm type:                                                              2

       Normalised Cartesian orbitals:

                        Set   Shell   Orbital            Exponent    Coefficient

                          1       1    1s                0.024986      -0.005225
                                                         0.042000       0.000000
                                                         0.071573       0.019280
                                                         0.317258       0.069068
                                                         0.895326       0.381507
                                                         1.873645       0.199315

                          1       2    2s                0.024986       0.045201
                                                         0.042000       0.000000
                                                         0.071573       0.013618
                                                         0.317258      -0.183986
                                                         0.895326       0.270885
                                                         1.873645      -0.061563

                          1       3    3s                0.024986       0.002560
                                                         0.042000       0.000000
                                                         0.071573       0.096841
                                                         0.317258       0.026969
                                                         0.895326      -0.223817
                                                         1.873645      -0.048323

                          1       4    4s                0.024986       0.039399
                                                         0.042000       0.007240
                                                         0.071573       0.000972
                                                         0.317258       0.002969
                                                         0.895326       0.006465
                                                         1.873645       0.011248

                          1       5    2px               0.024986       0.003396
                                                         0.042000       0.000000
                                                         0.071573       0.018577
                                                         0.317258       0.198864
                                                         0.895326      -0.211374
                                                         1.873645       1.117467
                          1       5    2py               0.024986       0.003396
                                                         0.042000       0.000000
                                                         0.071573       0.018577
                                                         0.317258       0.198864
                                                         0.895326      -0.211374
                                                         1.873645       1.117467
                          1       5    2pz               0.024986       0.003396
                                                         0.042000       0.000000
                                                         0.071573       0.018577
                                                         0.317258       0.198864
                                                         0.895326      -0.211374
                                                         1.873645       1.117467

                          1       6    3px               0.024986       0.012460
                                                         0.042000       0.000000
                                                         0.071573       0.009237
                                                         0.317258      -0.153981
                                                         0.895326      -0.003138
                                                         1.873645      -0.063665
                          1       6    3py               0.024986       0.012460
                                                         0.042000       0.000000
                                                         0.071573       0.009237
                                                         0.317258      -0.153981
                                                         0.895326      -0.003138
                                                         1.873645      -0.063665
                          1       6    3pz               0.024986       0.012460
                                                         0.042000       0.000000
                                                         0.071573       0.009237
                                                         0.317258      -0.153981
                                                         0.895326      -0.003138
                                                         1.873645      -0.063665

                          1       7    4px               0.024986      -0.003098
                                                         0.042000       0.000000
                                                         0.071573       0.050783
                                                         0.317258      -0.007155
                                                         0.895326       0.113763
                                                         1.873645      -2.257376
                          1       7    4py               0.024986      -0.003098
                                                         0.042000       0.000000
                                                         0.071573       0.050783
                                                         0.317258      -0.007155
                                                         0.895326       0.113763
                                                         1.873645      -2.257376
                          1       7    4pz               0.024986      -0.003098
                                                         0.042000       0.000000
                                                         0.071573       0.050783
                                                         0.317258      -0.007155
                                                         0.895326       0.113763
                                                         1.873645      -2.257376

                          1       8    5px               0.024986       0.027296
                                                         0.042000      -0.030418
                                                         0.071573       0.000357
                                                         0.317258       0.002297
                                                         0.895326       0.008403
                                                         1.873645       0.021151
                          1       8    5py               0.024986       0.027296
                                                         0.042000      -0.030418
                                                         0.071573       0.000357
                                                         0.317258       0.002297
                                                         0.895326       0.008403
                                                         1.873645       0.021151
                          1       8    5pz               0.024986       0.027296
                                                         0.042000      -0.030418
                                                         0.071573       0.000357
                                                         0.317258       0.002297
                                                         0.895326       0.008403
                                                         1.873645       0.021151

                          1       9    3dx2              0.024986      -0.000170
                                                         0.042000       0.000000
                                                         0.071573       0.001973
                                                         0.317258      -0.012062
                                                         0.895326       0.484105
                                                         1.873645       3.492100
                          1       9    3dxy              0.024986      -0.000295
                                                         0.042000       0.000000
                                                         0.071573       0.003417
                                                         0.317258      -0.020892
                                                         0.895326       0.838495
                                                         1.873645       6.048495
                          1       9    3dxz              0.024986      -0.000295
                                                         0.042000       0.000000
                                                         0.071573       0.003417
                                                         0.317258      -0.020892
                                                         0.895326       0.838495
                                                         1.873645       6.048495
                          1       9    3dy2              0.024986      -0.000170
                                                         0.042000       0.000000
                                                         0.071573       0.001973
                                                         0.317258      -0.012062
                                                         0.895326       0.484105
                                                         1.873645       3.492100
                          1       9    3dyz              0.024986      -0.000295
                                                         0.042000       0.000000
                                                         0.071573       0.003417
                                                         0.317258      -0.020892
                                                         0.895326       0.838495
                                                         1.873645       6.048495
                          1       9    3dz2              0.024986      -0.000170
                                                         0.042000       0.000000
                                                         0.071573       0.001973
                                                         0.317258      -0.012062
                                                         0.895326       0.484105
                                                         1.873645       3.492100

                          1      10    4dx2              0.024986       0.000075
                                                         0.042000       0.000000
                                                         0.071573       0.004609
                                                         0.317258       0.199620
                                                         0.895326      -0.212746
                                                         1.873645       0.510468
                          1      10    4dxy              0.024986       0.000130
                                                         0.042000       0.000000
                                                         0.071573       0.007983
                                                         0.317258       0.345752
                                                         0.895326      -0.368487
                                                         1.873645       0.884156
                          1      10    4dxz              0.024986       0.000130
                                                         0.042000       0.000000
                                                         0.071573       0.007983
                                                         0.317258       0.345752
                                                         0.895326      -0.368487
                                                         1.873645       0.884156
                          1      10    4dy2              0.024986       0.000075
                                                         0.042000       0.000000
                                                         0.071573       0.004609
                                                         0.317258       0.199620
                                                         0.895326      -0.212746
                                                         1.873645       0.510468
                          1      10    4dyz              0.024986       0.000130
                                                         0.042000       0.000000
                                                         0.071573       0.007983
                                                         0.317258       0.345752
                                                         0.895326      -0.368487
                                                         1.873645       0.884156
                          1      10    4dz2              0.024986       0.000075
                                                         0.042000       0.000000
                                                         0.071573       0.004609
                                                         0.317258       0.199620
                                                         0.895326      -0.212746
                                                         1.873645       0.510468

                          1      11    5dx2              0.024986       0.001238
                                                         0.042000       0.000000
                                                         0.071573       0.010869
                                                         0.317258      -0.048337
                                                         0.895326      -0.029701
                                                         1.873645      -0.372455
                          1      11    5dxy              0.024986       0.002144
                                                         0.042000       0.000000
                                                         0.071573       0.018826
                                                         0.317258      -0.083722
                                                         0.895326      -0.051444
                                                         1.873645      -0.645112
                          1      11    5dxz              0.024986       0.002144
                                                         0.042000       0.000000
                                                         0.071573       0.018826
                                                         0.317258      -0.083722
                                                         0.895326      -0.051444
                                                         1.873645      -0.645112
                          1      11    5dy2              0.024986       0.001238
                                                         0.042000       0.000000
                                                         0.071573       0.010869
                                                         0.317258      -0.048337
                                                         0.895326      -0.029701
                                                         1.873645      -0.372455
                          1      11    5dyz              0.024986       0.002144
                                                         0.042000       0.000000
                                                         0.071573       0.018826
                                                         0.317258      -0.083722
                                                         0.895326      -0.051444
                                                         1.873645      -0.645112
                          1      11    5dz2              0.024986       0.001238
                                                         0.042000       0.000000
                                                         0.071573       0.010869
                                                         0.317258      -0.048337
                                                         0.895326      -0.029701
                                                         1.873645      -0.372455

                          1      12    6dx2              0.024986       0.005668
                                                         0.042000      -0.011682
                                                         0.071573       0.000449
                                                         0.317258       0.006086
                                                         0.895326       0.037398
                                                         1.873645       0.136172
                          1      12    6dxy              0.024986       0.009817
                                                         0.042000      -0.020234
                                                         0.071573       0.000778
                                                         0.317258       0.010542
                                                         0.895326       0.064776
                                                         1.873645       0.235856
                          1      12    6dxz              0.024986       0.009817
                                                         0.042000      -0.020234
                                                         0.071573       0.000778
                                                         0.317258       0.010542
                                                         0.895326       0.064776
                                                         1.873645       0.235856
                          1      12    6dy2              0.024986       0.005668
                                                         0.042000      -0.011682
                                                         0.071573       0.000449
                                                         0.317258       0.006086
                                                         0.895326       0.037398
                                                         1.873645       0.136172
                          1      12    6dyz              0.024986       0.009817
                                                         0.042000      -0.020234
                                                         0.071573       0.000778
                                                         0.317258       0.010542
                                                         0.895326       0.064776
                                                         1.873645       0.235856
                          1      12    6dz2              0.024986       0.005668
                                                         0.042000      -0.011682
                                                         0.071573       0.000449
                                                         0.317258       0.006086
                                                         0.895326       0.037398
                                                         1.873645       0.136172

                          1      13    4fx3              0.024986      -0.000302
                                                         0.042000       0.000373
                                                         0.071573       0.001239
                                                         0.317258       0.035311
                                                         0.895326       0.364496
                                                         1.873645       1.919912
                          1      13    4fx2y             0.024986      -0.000675
                                                         0.042000       0.000835
                                                         0.071573       0.002770
                                                         0.317258       0.078958
                                                         0.895326       0.815038
                                                         1.873645       4.293054
                          1      13    4fx2z             0.024986      -0.000675
                                                         0.042000       0.000835
                                                         0.071573       0.002770
                                                         0.317258       0.078958
                                                         0.895326       0.815038
                                                         1.873645       4.293054
                          1      13    4fxy2             0.024986      -0.000675
                                                         0.042000       0.000835
                                                         0.071573       0.002770
                                                         0.317258       0.078958
                                                         0.895326       0.815038
                                                         1.873645       4.293054
                          1      13    4fxyz             0.024986      -0.001169
                                                         0.042000       0.001446
                                                         0.071573       0.004797
                                                         0.317258       0.136760
                                                         0.895326       1.411687
                                                         1.873645       7.435787
                          1      13    4fxz2             0.024986      -0.000675
                                                         0.042000       0.000835
                                                         0.071573       0.002770
                                                         0.317258       0.078958
                                                         0.895326       0.815038
                                                         1.873645       4.293054
                          1      13    4fy3              0.024986      -0.000302
                                                         0.042000       0.000373
                                                         0.071573       0.001239
                                                         0.317258       0.035311
                                                         0.895326       0.364496
                                                         1.873645       1.919912
                          1      13    4fy2z             0.024986      -0.000675
                                                         0.042000       0.000835
                                                         0.071573       0.002770
                                                         0.317258       0.078958
                                                         0.895326       0.815038
                                                         1.873645       4.293054
                          1      13    4fyz2             0.024986      -0.000675
                                                         0.042000       0.000835
                                                         0.071573       0.002770
                                                         0.317258       0.078958
                                                         0.895326       0.815038
                                                         1.873645       4.293054
                          1      13    4fz3              0.024986      -0.000302
                                                         0.042000       0.000373
                                                         0.071573       0.001239
                                                         0.317258       0.035311
                                                         0.895326       0.364496
                                                         1.873645       1.919912

                          2       1    1s                3.035254      -3.760766
                                                         0.925242       0.985667

                          2       2    2px               3.035254       2.333753
                                                         0.925242       0.667881
                          2       2    2py               3.035254       2.333753
                                                         0.925242       0.667881
                          2       2    2pz               3.035254       2.333753
                                                         0.925242       0.667881

                          3       1    1s         

     AE Potential information for                                            ALL

       Description:                                       All-electron potential
                                          Krack, Parrinello, PCCP 2, 2105 (2000)

       Gaussian exponent of the core charge distribution:               8.240971
       Electronic configuration (s p d ...):                           5   6   0

  2. Atomic kind: o                                     Number of atoms:       1

     Orbital Basis Set                                        aug-TZVP-MOLOPT-ae

       Number of orbital shell sets:                                           2
       Number of orbital shells:                                              16
       Number of primitive Cartesian functions:                               13
       Number of Cartesian basis functions:                                   71
       Number of spherical basis functions:                                   56
       Norm type:                                                              2

       Normalised Cartesian orbitals:

                        Set   Shell   Orbital            Exponent    Coefficient

                          1       1    1s                0.050000       0.000000
                                                         0.148931       0.008771
                                                         0.454433       0.026241
                                                         1.335408       0.005818
                                                         4.395399       0.718493
                                                        12.309450       2.903007
                                                        62.914956       1.320675

                          1       2    2s                0.050000       0.000000
                                                         0.148931       0.036066
                                                         0.454433       0.073646
                                                         1.335408       0.667362
                                                         4.395399      -0.111917
                                                        12.309450      -0.053902
                                                        62.914956      -0.747743

                          1       3    3s                0.050000       0.000000
                                                         0.148931       0.072341
                                                         0.454433       0.339134
                                                         1.335408      -0.296204
                                                         4.395399      -0.066370
                                                        12.309450      -0.509964
                                                        62.914956       0.182030

                          1       4    4s                0.050000       0.000000
                                                         0.148931       0.257390
                                                         0.454433      -0.327789
                                                         1.335408      -0.186757
                                                         4.395399      -0.014958
                                                        12.309450      -0.201401
                                                        62.914956       1.590188

                          1       5    5s                0.050000       0.095896
                                                         0.148931      -0.062439
                                                         0.454433       0.011784
                                                         1.335408      -0.100924
                                                         4.395399       0.000000
                                                        12.309450       0.000000
                                                        62.914956       0.000000

                          1       6    2px               0.050000       0.000000
                                                         0.148931       0.002211
                                                         0.454433      -0.015509
                                                         1.335408       1.487193
                                                         4.395399       2.867225
                                                        12.309450       3.872733
                                                        62.914956     -23.794765
                          1       6    2py               0.050000       0.000000
                                                         0.148931       0.002211
                                                         0.454433      -0.015509
                                                         1.335408       1.487193
                                                         4.395399       2.867225
                                                        12.309450       3.872733
                                                        62.914956     -23.794765
                          1       6    2pz               0.050000       0.000000
                                                         0.148931       0.002211
                                                         0.454433      -0.015509
                                                         1.335408       1.487193
                                                         4.395399       2.867225
                                                        12.309450       3.872733
                                                        62.914956     -23.794765

                          1       7    3px               0.050000       0.000000
                                                         0.148931       0.008518
                                                         0.454433       0.481961
                                                         1.335408       0.085170
                                                         4.395399       0.441215
                                                        12.309450      -1.837950
                                                        62.914956      36.698597
                          1       7    3py               0.050000       0.000000
                                                         0.148931       0.008518
                                                         0.454433       0.481961
                                                         1.335408       0.085170
                                                         4.395399       0.441215
                                                        12.309450      -1.837950
                                                        62.914956      36.698597
                          1       7    3pz               0.050000       0.000000
                                                         0.148931       0.008518
                                                         0.454433       0.481961
                                                         1.335408       0.085170
                                                         4.395399       0.441215
                                                        12.309450      -1.837950
                                                        62.914956      36.698597

                          1       8    4px               0.050000       0.000000
                                                         0.148931       0.138320
                                                         0.454433      -0.034294
                                                         1.335408      -0.042535
                                                         4.395399      -0.295522
                                                        12.309450       0.600610
                                                        62.914956     -10.152534
                          1       8    4py               0.050000       0.000000
                                                         0.148931       0.138320
                                                         0.454433      -0.034294
                                                         1.335408      -0.042535
                                                         4.395399      -0.295522
                                                        12.309450       0.600610
                                                        62.914956     -10.152534
                          1       8    4pz               0.050000       0.000000
                                                         0.148931       0.138320
                                                         0.454433      -0.034294
                                                         1.335408      -0.042535
                                                         4.395399      -0.295522
                                                        12.309450       0.600610
                                                        62.914956     -10.152534

                          1       9    5px               0.050000      -0.000964
                                                         0.148931       0.027417
                                                         0.454433       0.328542
                                                         1.335408       0.651611
                                                         4.395399       0.000000
                                                        12.309450       0.000000
                                                        62.914956       0.000000
                          1       9    5py               0.050000      -0.000964
                                                         0.148931       0.027417
                                                         0.454433       0.328542
                                                         1.335408       0.651611
                                                         4.395399       0.000000
                                                        12.309450       0.000000
                                                        62.914956       0.000000
                          1       9    5pz               0.050000      -0.000964
                                                         0.148931       0.027417
                                                         0.454433       0.328542
                                                         1.335408       0.651611
                                                         4.395399       0.000000
                                                        12.309450       0.000000
                                                        62.914956       0.000000

                          1      10    3dx2              0.050000       0.000000
                                                         0.148931       0.011799
                                                         0.454433       0.037044
                                                         1.335408       1.177796
                                                         4.395399      13.187048
                                                        12.309450      -3.718320
                                                        62.914956     245.407483
                          1      10    3dxy              0.050000       0.000000
                                                         0.148931       0.020436
                                                         0.454433       0.064161
                                                         1.335408       2.040003
                                                         4.395399      22.840637
                                                        12.309450      -6.440319
                                                        62.914956     425.058229
                          1      10    3dxz              0.050000       0.000000
                                                         0.148931       0.020436
                                                         0.454433       0.064161
                                                         1.335408       2.040003
                                                         4.395399      22.840637
                                                        12.309450      -6.440319
                                                        62.914956     425.058229
                          1      10    3dy2              0.050000       0.000000
                                                         0.148931       0.011799
                                                         0.454433       0.037044
                                                         1.335408       1.177796
                                                         4.395399      13.187048
                                                        12.309450      -3.718320
                                                        62.914956     245.407483
                          1      10    3dyz              0.050000       0.000000
                                                         0.148931       0.020436
                                                         0.454433       0.064161
                                                         1.335408       2.040003
                                                         4.395399      22.840637
                                                        12.309450      -6.440319
                                                        62.914956     425.058229
                          1      10    3dz2              0.050000       0.000000
                                                         0.148931       0.011799
                                                         0.454433       0.037044
                                                         1.335408       1.177796
                                                         4.395399      13.187048
                                                        12.309450      -3.718320
                                                        62.914956     245.407483

                          1      11    4dx2              0.050000       0.000000
                                                         0.148931      -0.006399
                                                         0.454433       0.341143
                                                         1.335408       1.062793
                                                         4.395399      -7.656182
                                                        12.309450       6.262545
                                                        62.914956    -198.939864
                          1      11    4dxy              0.050000       0.000000
                                                         0.148931      -0.011084
                                                         0.454433       0.590877
                                                         1.335408       1.840811
                                                         4.395399     -13.260897
                                                        12.309450      10.847045
                                                        62.914956    -344.573952
                          1      11    4dxz              0.050000       0.000000
                                                         0.148931      -0.011084
                                                         0.454433       0.590877
                                                         1.335408       1.840811
                                                         4.395399     -13.260897
                                                        12.309450      10.847045
                                                        62.914956    -344.573952
                          1      11    4dy2              0.050000       0.000000
                                                         0.148931      -0.006399
                                                         0.454433       0.341143
                                                         1.335408       1.062793
                                                         4.395399      -7.656182
                                                        12.309450       6.262545
                                                        62.914956    -198.939864
                          1      11    4dyz              0.050000       0.000000
                                                         0.148931      -0.011084
                                                         0.454433       0.590877
                                                         1.335408       1.840811
                                                         4.395399     -13.260897
                                                        12.309450      10.847045
                                                        62.914956    -344.573952
                          1      11    4dz2              0.050000       0.000000
                                                         0.148931      -0.006399
                                                         0.454433       0.341143
                                                         1.335408       1.062793
                                                         4.395399      -7.656182
                                                        12.309450       6.262545
                                                        62.914956    -198.939864

                          1      12    5dx2              0.050000      -0.000167
                                                         0.148931       0.000910
                                                         0.454433       0.391605
                                                         1.335408       0.205296
                                                         4.395399       0.000000
                                                        12.309450       0.000000
                                                        62.914956       0.000000
                          1      12    5dxy              0.050000      -0.000290
                                                         0.148931       0.001577
                                                         0.454433       0.678279
                                                         1.335408       0.355584
                                                         4.395399       0.000000
                                                        12.309450       0.000000
                                                        62.914956       0.000000
                          1      12    5dxz              0.050000      -0.000290
                                                         0.148931       0.001577
                                                         0.454433       0.678279
                                                         1.335408       0.355584
                                                         4.395399       0.000000
                                                        12.309450       0.000000
                                                        62.914956       0.000000
                          1      12    5dy2              0.050000      -0.000167
                                                         0.148931       0.000910
                                                         0.454433       0.391605
                                                         1.335408       0.205296
                                                         4.395399       0.000000
                                                        12.309450       0.000000
                                                        62.914956       0.000000
                          1      12    5dyz              0.050000      -0.000290
                                                         0.148931       0.001577
                                                         0.454433       0.678279
                                                         1.335408       0.355584
                                                         4.395399       0.000000
                                                        12.309450       0.000000
                                                        62.914956       0.000000
                          1      12    5dz2              0.050000      -0.000167
                                                         0.148931       0.000910
                                                         0.454433       0.391605
                                                         1.335408       0.205296
                                                         4.395399       0.000000
                                                        12.309450       0.000000
                                                        62.914956       0.000000

                          1      13    4fx3              0.050000       0.000000
                                                         0.148931       0.001654
                                                         0.454433       0.066745
                                                         1.335408       2.406605
                                                         4.395399      -5.031344
                                                        12.309450      16.622131
                                                        62.914956       4.775823
                          1      13    4fx2y             0.050000       0.000000
                                                         0.148931       0.003699
                                                         0.454433       0.149247
                                                         1.335408       5.381333
                                                         4.395399     -11.250428
                                                        12.309450      37.168214
                                                        62.914956      10.679064
                          1      13    4fx2z             0.050000       0.000000
                                                         0.148931       0.003699
                                                         0.454433       0.149247
                                                         1.335408       5.381333
                                                         4.395399     -11.250428
                                                        12.309450      37.168214
                                                        62.914956      10.679064
                          1      13    4fxy2             0.050000       0.000000
                                                         0.148931       0.003699
                                                         0.454433       0.149247
                                                         1.335408       5.381333
                                                         4.395399     -11.250428
                                                        12.309450      37.168214
                                                        62.914956      10.679064
                          1      13    4fxyz             0.050000       0.000000
                                                         0.148931       0.006406
                                                         0.454433       0.258503
                                                         1.335408       9.320743
                                                         4.395399     -19.486313
                                                        12.309450      64.377235
                                                        62.914956      18.496681
                          1      13    4fxz2             0.050000       0.000000
                                                         0.148931       0.003699
                                                         0.454433       0.149247
                                                         1.335408       5.381333
                                                         4.395399     -11.250428
                                                        12.309450      37.168214
                                                        62.914956      10.679064
                          1      13    4fy3              0.050000       0.000000
                                                         0.148931       0.001654
                                                         0.454433       0.066745
                                                         1.335408       2.406605
                                                         4.395399      -5.031344
                                                        12.309450      16.622131
                                                        62.914956       4.775823
                          1      13    4fy2z             0.050000       0.000000
                                                         0.148931       0.003699
                                                         0.454433       0.149247
                                                         1.335408       5.381333
                                                         4.395399     -11.250428
                                                        12.309450      37.168214
                                                        62.914956      10.679064
                          1      13    4fyz2             0.050000       0.000000
                                                         0.148931       0.003699
                                                         0.454433       0.149247
                                                         1.335408       5.381333
                                                         4.395399     -11.250428
                                                        12.309450      37.168214
                                                        62.914956      10.679064
                          1      13    4fz3              0.050000       0.000000
                                                         0.148931       0.001654
                                                         0.454433       0.066745
                                                         1.335408       2.406605
                                                         4.395399      -5.031344
                                                        12.309450      16.622131
                                                        62.914956       4.775823

                          1      14    5fx3              0.050000      -0.000035
                                                         0.148931       0.000216
                                                         0.454433       0.256015
                                                         1.335408      -0.160820
                                                         4.395399       0.000000
                                                        12.309450       0.000000
                                                        62.914956       0.000000
                          1      14    5fx2y             0.050000      -0.000077
                                                         0.148931       0.000483
                                                         0.454433       0.572467
                                                         1.335408      -0.359605
                                                         4.395399       0.000000
                                                        12.309450       0.000000
                                                        62.914956       0.000000
                          1      14    5fx2z             0.050000      -0.000077
                                                         0.148931       0.000483
                                                         0.454433       0.572467
                                                         1.335408      -0.359605
                                                         4.395399       0.000000
                                                        12.309450       0.000000
                                                        62.914956       0.000000
                          1      14    5fxy2             0.050000      -0.000077
                                                         0.148931       0.000483
                                                         0.454433       0.572467
                                                         1.335408      -0.359605
                                                         4.395399       0.000000
                                                        12.309450       0.000000
                                                        62.914956       0.000000
                          1      14    5fxyz             0.050000      -0.000134
                                                         0.148931       0.000837
                                                         0.454433       0.991542
                                                         1.335408      -0.622854
                                                         4.395399       0.000000
                                                        12.309450       0.000000
                                                        62.914956       0.000000
                          1      14    5fxz2             0.050000      -0.000077
                                                         0.148931       0.000483
                                                         0.454433       0.572467
                                                         1.335408      -0.359605
                                                         4.395399       0.000000
                                                        12.309450       0.000000
                                                        62.914956       0.000000
                          1      14    5fy3              0.050000      -0.000035
                                                         0.148931       0.000216
                                                         0.454433       0.256015
                                                         1.335408      -0.160820
                                                         4.395399       0.000000
                                                        12.309450       0.000000
                                                        62.914956       0.000000
                          1      14    5fy2z             0.050000      -0.000077
                                                         0.148931       0.000483
                                                         0.454433       0.572467
                                                         1.335408      -0.359605
                                                         4.395399       0.000000
                                                        12.309450       0.000000
                                                        62.914956       0.000000
                          1      14    5fyz2             0.050000      -0.000077
                                                         0.148931       0.000483
                                                         0.454433       0.572467
                                                         1.335408      -0.359605
                                                         4.395399       0.000000
                                                        12.309450       0.000000
                                                        62.914956       0.000000
                          1      14    5fz3              0.050000      -0.000035
                                                         0.148931       0.000216
                                                         0.454433       0.256015
                                                         1.335408      -0.160820
                                                         4.395399       0.000000
                                                        12.309450       0.000000
                                                        62.914956       0.000000

                          1      15    5gx4              0.050000       0.000008
                                                         0.148931       0.000769
                                                         0.454433       0.118509
                                                         1.335408       0.001274
                                                         4.395399       0.000000
                                                        12.309450       0.000000
                                                        62.914956       0.000000
                          1      15    5gx3y             0.050000       0.000022
                                                         0.148931       0.002034
                                                         0.454433       0.313545
                                                         1.335408       0.003370
                                                         4.395399       0.000000
                                                        12.309450       0.000000
                                                        62.914956       0.000000
                          1      15    5gx3z             0.050000       0.000022
                                                         0.148931       0.002034
                                                         0.454433       0.313545
                                                         1.335408       0.003370
                                                         4.395399       0.000000
                                                        12.309450       0.000000
                                                        62.914956       0.000000
                          1      15    5gx2y2            0.050000       0.000029
                                                         0.148931       0.002626
                                                         0.454433       0.404785
                                                         1.335408       0.004351
                                                         4.395399       0.000000
                                                        12.309450       0.000000
                                                        62.914956       0.000000
                          1      15    5gx2yz            0.050000       0.000050
                                                         0.148931       0.004548
                                                         0.454433       0.701109
                                                         1.335408       0.007536
                                                         4.395399       0.000000
                                                        12.309450       0.000000
                                                        62.914956       0.000000
                          1      15    5gx2z2            0.050000       0.000029
                                                         0.148931       0.002626
                                                         0.454433       0.404785
                                                         1.335408       0.004351
                                                         4.395399       0.000000
                                                        12.309450       0.000000
                                                        62.914956       0.000000
                          1      15    5gxy3             0.050000       0.000022
                                                         0.148931       0.002034
                                                         0.454433       0.313545
                                                         1.335408       0.003370
                                                         4.395399       0.000000
                                                        12.309450       0.000000
                                                        62.914956       0.000000
                          1      15    5gxy2z            0.050000       0.000050
                                                         0.148931       0.004548
                                                         0.454433       0.701109
                                                         1.335408       0.007536
                                                         4.395399       0.000000
                                                        12.309450       0.000000
                                                        62.914956       0.000000
                          1      15    5gxyz2            0.050000       0.000050
                                                         0.148931       0.004548
                                                         0.454433       0.701109
                                                         1.335408       0.007536
                                                         4.395399       0.000000
                                                        12.309450       0.000000
                                                        62.914956       0.000000
                          1      15    5gxz3             0.050000       0.000022
                                                         0.148931       0.002034
                                                         0.454433       0.313545
                                                         1.335408       0.003370
                                                         4.395399       0.000000
                                                        12.309450       0.000000
                                                        62.914956       0.000000
                          1      15    5gy4              0.050000       0.000008
                                                         0.148931       0.000769
                                                         0.454433       0.118509
                                                         1.335408       0.001274
                                                         4.395399       0.000000
                                                        12.309450       0.000000
                                                        62.914956       0.000000
                          1      15    5gy3z             0.050000       0.000022
                                                         0.148931       0.002034
                                                         0.454433       0.313545
                                                         1.335408       0.003370
                                                         4.395399       0.000000
                                                        12.309450       0.000000
                                                        62.914956       0.000000
                          1      15    5gy2z2            0.050000       0.000029
                                                         0.148931       0.002626
                                                         0.454433       0.404785
                                                         1.335408       0.004351
                                                         4.395399       0.000000
                                                        12.309450       0.000000
                                                        62.914956       0.000000
                          1      15    5gyz3             0.050000       0.000022
                                                         0.148931       0.002034
                                                         0.454433       0.313545
                                                         1.335408       0.003370
                                                         4.395399       0.000000
                                                        12.309450       0.000000
                                                        62.914956       0.000000
                          1      15    5gz4              0.050000       0.000008
                                                         0.148931       0.000769
                                                         0.454433       0.118509
                                                         1.335408       0.001274
                                                         4.395399       0.000000
                                                        12.309450       0.000000
                                                        62.914956       0.000000

                          2       1    1s            27032.341107       0.827485
                                                      4052.439160       2.350354
                                                       922.349653       2.989583
                                                       261.277359       5.859993
                                                        85.309424       4.920023
                                                        31.080802       6.525964

     RI Auxiliary Basis Set             RI_aug-TZVP-MOLOPT-ae_N_RI_084_s_p_d_f_g

       Number of orbital shell sets:                                          20
       Number of orbital shells:                                              20
       Number of primitive Cartesian functions:                               20
       Number of Cartesian basis functions:                                  118
       Number of spherical basis functions:                                   84
       Norm type:                                                              2

       Normalised Cartesian orbitals:

                        Set   Shell   Orbital            Exponent    Coefficient

                          1       1    1s                0.394977       0.355090

                          2       1    8px               0.592593       0.741114
                          2       1    8py               0.592593       0.741114
                          2       1    8pz               0.592593       0.741114

                          3       1   12dx2              0.622193       0.717428
                          3       1   12dxy              0.622193       1.242621
                          3       1   12dxz              0.622193       1.242621
                          3       1   12dy2              0.622193       0.717428
                          3       1   12dyz              0.622193       1.242621
                          3       1   12dz2              0.622193       0.717428

                          4       1   15fx3              0.748820       0.767899
                          4       1   15fx2y             0.748820       1.717074
                          4       1   15fx2z             0.748820       1.717074
                          4       1   15fxy2             0.748820       1.717074
                          4       1   15fxyz             0.748820       2.974059
                          4       1   15fxz2             0.748820       1.717074
                          4       1   15fy3              0.748820       0.767899
                          4       1   15fy2z             0.748820       1.717074
                          4       1   15fyz2             0.748820       1.717074
                          4       1   15fz3              0.748820       0.767899

                          5       1    2s                0.758177       0.579080

                          6       1   20hx5              0.762638       0.307524
                          6       1   20hx4y             0.762638       0.922572
                          6       1   20hx4z             0.762638       0.922572
                          6       1   20hx3y2            0.762638       1.409252
                          6       1   20hx3yz            0.762638       2.440896
                          6       1   20hx3z2            0.762638       1.409252
                          6       1   20hx2y3            0.762638       1.409252
                          6       1   20hx2y2z           0.762638       3.151183
                          6       1   20hx2yz2           0.762638       3.151183
                          6       1   20hx2z3            0.762638       1.409252
                          6       1   20hxy4             0.762638       0.922572
                          6       1   20hxy3z            0.762638       2.440896
                          6       1   20hxy2z2           0.762638       3.151183
                          6       1   20hxyz3            0.762638       2.440896
                          6       1   20hxz4             0.762638       0.922572
                          6       1   20hy5              0.762638       0.307524
                          6       1   20hy4z             0.762638       0.922572
                          6       1   20hy3z2            0.762638       1.409252
                          6       1   20hy2z3            0.762638       1.409252
                          6       1   20hyz4             0.762638       0.922572
                          6       1   20hz5              0.762638       0.307524

                          7       1   18gx4              0.766762       0.536108
                          7       1   18gx3y             0.766762       1.418409
                          7       1   18gx3z             0.766762       1.418409
                          7       1   18gx2y2            0.766762       1.831158
                          7       1   18gx2yz            0.766762       3.171659
                          7       1   18gx2z2            0.766762       1.831158
                          7       1   18gxy3             0.766762       1.418409
                          7       1   18gxy2z            0.766762       3.171659
                          7       1   18gxyz2            0.766762       3.171659
                          7       1   18gxz3             0.766762       1.418409
                          7       1   18gy4              0.766762       0.536108
                          7       1   18gy3z             0.766762       1.418409
                          7       1   18gy2z2            0.766762       1.831158
                          7       1   18gyz3             0.766762       1.418409
                          7       1   18gz4              0.766762       0.536108

                          8       1    9px               1.302856       1.984087
                          8       1    9py               1.302856       1.984087
                          8       1    9pz               1.302856       1.984087

                          9       1   13dx2              1.576763       3.651747
                          9       1   13dxy              1.576763       6.325011
                          9       1   13dxz              1.576763       6.325011
                          9       1   13dy2              1.576763       3.651747
                          9       1   13dyz              1.576763       6.325011
                          9       1   13dz2              1.576763       3.651747

                         10       1   16fx3              1.850605       5.880449
                         10       1   16fx2y             1.850605      13.149085
                         10       1   16fx2z             1.850605      13.149085
                         10       1   16fxy2             1.850605      13.149085
                         10       1   16fxyz             1.850605      22.774883
                         10       1   16fxz2             1.850605      13.149085
                         10       1   16fy3              1.850605       5.880449
                         10       1   16fy2z             1.850605      13.149085
                         10       1   16fyz2             1.850605      13.149085
                         10       1   16fz3              1.850605       5.880449

                         11       1    3s                2.019986       1.207595

                         12       1   19gx4              2.247734      10.321295
                         12       1   19gx3y             2.247734      27.307580
                         12       1   19gx3z             2.247734      27.307580
                         12       1   19gx2y2            2.247734      35.253935
                         12       1   19gx2yz            2.247734      61.061606
                         12       1   19gx2z2            2.247734      35.253935
                         12       1   19gxy3             2.247734      27.307580
                         12       1   19gxy2z            2.247734      61.061606
                         12       1   19gxyz2            2.247734      61.061606
                         12       1   19gxz3             2.247734      27.307580
                         12       1   19gy4              2.247734      10.321295
                         12       1   19gy3z             2.247734      27.307580
                         12       1   19gy2z2            2.247734      35.253935
                         12       1   19gyz3             2.247734      27.307580
                         12       1   19gz4              2.247734      10.321295

                         13       1   10px               4.315805       8.866810
                         13       1   10py               4.315805       8.866810
                         13       1   10pz               4.315805       8.866810

                         14       1   17fx3              5.299035      62.718738
                         14       1   17fx2y             5.299035     140.243362
                         14       1   17fx2z             5.299035     140.243362
                         14       1   17fxy2             5.299035     140.243362
                         14       1   17fxyz             5.299035     242.908628
                         14       1   17fxz2             5.299035     140.243362
                         14       1   17fy3              5.299035      62.718738
                         14       1   17fy2z             5.299035     140.243362
                         14       1   17fyz2             5.299035     140.243362
                         14       1   17fz3              5.299035      62.718738

                         15       1   14dx2              5.831670      36.020277
                         15       1   14dxy              5.831670      62.388950
                         15       1   14dxz              5.831670      62.388950
                         15       1   14dy2              5.831670      36.020277
                         15       1   14dyz              5.831670      62.388950
                         15       1   14dz2              5.831670      36.020277

                         16       1    4s                6.133734       2.777818

                         17       1   11px              16.187533      46.282405
                         17       1   11py              16.187533      46.282405
                         17       1   11pz              16.187533      46.282405

                         18       1    5s               18.509850       6.360076

                         19       1    6s               54.993071      14.392660

                         20       1    7s              162.486381      32.435666

       Atomic covalent radius [Angstrom]:                                  0.730

       Atomic van der Waals radius [Angstrom]:                             1.520

     The atoms of this atomic kind are PAW atoms (GAPW):
       Hard Gaussian function radius:                                      1.512
       Rho0 radius:                                                        1.512
       Maximum GTO radius used for PAW projector construction:            24.566

     GAPW Soft Basis Set                                 aug-TZVP-MOLOPT-ae_soft

       Number of orbital shell sets:                                           2
       Number of orbital shells:                                              16
       Number of primitive Cartesian functions:                                5
       Number of Cartesian basis functions:                                   71
       Number of spherical basis functions:                                   56
       Norm type:                                                              2

       Normalised Cartesian orbitals:

                        Set   Shell   Orbital            Exponent    Coefficient

                          1       1    1s                0.050000       0.000000
                                                         0.148931       0.008771
                                                         0.454433       0.026241
                                                         1.335408       0.005818
                                                         4.395399       0.000000

                          1       2    2s                0.050000       0.000000
                                                         0.148931       0.036066
                                                         0.454433       0.073646
                                                         1.335408       0.667362
                                                         4.395399       0.000000

                          1       3    3s                0.050000       0.000000
                                                         0.148931       0.072341
                                                         0.454433       0.339134
                                                         1.335408      -0.296204
                                                         4.395399       0.000000

                          1       4    4s                0.050000       0.000000
                                                         0.148931       0.257390
                                                         0.454433      -0.327789
                                                         1.335408      -0.186757
                                                         4.395399       0.000000

                          1       5    5s                0.050000       0.095896
                                                         0.148931      -0.062439
                                                         0.454433       0.011784
                                                         1.335408      -0.100924
                                                         4.395399       0.000000

                          1       6    2px               0.050000       0.000000
                                                         0.148931       0.002211
                                                         0.454433      -0.015509
                                                         1.335408       1.487193
                                                         4.395399       0.000000
                          1       6    2py               0.050000       0.000000
                                                         0.148931       0.002211
                                                         0.454433      -0.015509
                                                         1.335408       1.487193
                                                         4.395399       0.000000
                          1       6    2pz               0.050000       0.000000
                                                         0.148931       0.002211
                                                         0.454433      -0.015509
                                                         1.335408       1.487193
                                                         4.395399       0.000000

                          1       7    3px               0.050000       0.000000
                                                         0.148931       0.008518
                                                         0.454433       0.481961
                                                         1.335408       0.085170
                                                         4.395399       0.000000
                          1       7    3py               0.050000       0.000000
                                                         0.148931       0.008518
                                                         0.454433       0.481961
                                                         1.335408       0.085170
                                                         4.395399       0.000000
                          1       7    3pz               0.050000       0.000000
                                                         0.148931       0.008518
                                                         0.454433       0.481961
                                                         1.335408       0.085170
                                                         4.395399       0.000000

                          1       8    4px               0.050000       0.000000
                                                         0.148931       0.138320
                                                         0.454433      -0.034294
                                                         1.335408      -0.042535
                                                         4.395399       0.000000
                          1       8    4py               0.050000       0.000000
                                                         0.148931       0.138320
                                                         0.454433      -0.034294
                                                         1.335408      -0.042535
                                                         4.395399       0.000000
                          1       8    4pz               0.050000       0.000000
                                                         0.148931       0.138320
                                                         0.454433      -0.034294
                                                         1.335408      -0.042535
                                                         4.395399       0.000000

                          1       9    5px               0.050000      -0.000964
                                                         0.148931       0.027417
                                                         0.454433       0.328542
                                                         1.335408       0.651611
                                                         4.395399       0.000000
                          1       9    5py               0.050000      -0.000964
                                                         0.148931       0.027417
                                                         0.454433       0.328542
                                                         1.335408       0.651611
                                                         4.395399       0.000000
                          1       9    5pz               0.050000      -0.000964
                                                         0.148931       0.027417
                                                         0.454433       0.328542
                                                         1.335408       0.651611
                                                         4.395399       0.000000

                          1      10    3dx2              0.050000       0.000000
                                                         0.148931       0.011799
                                                         0.454433       0.037044
                                                         1.335408       1.177796
                                                         4.395399       0.000000
                          1      10    3dxy              0.050000       0.000000
                                                         0.148931       0.020436
                                                         0.454433       0.064161
                                                         1.335408       2.040003
                                                         4.395399       0.000000
                          1      10    3dxz              0.050000       0.000000
                                                         0.148931       0.020436
                                                         0.454433       0.064161
                                                         1.335408       2.040003
                                                         4.395399       0.000000
                          1      10    3dy2              0.050000       0.000000
                                                         0.148931       0.011799
                                                         0.454433       0.037044
                                                         1.335408       1.177796
                                                         4.395399       0.000000
                          1      10    3dyz              0.050000       0.000000
                                                         0.148931       0.020436
                                                         0.454433       0.064161
                                                         1.335408       2.040003
                                                         4.395399       0.000000
                          1      10    3dz2              0.050000       0.000000
                                                         0.148931       0.011799
                                                         0.454433       0.037044
                                                         1.335408       1.177796
                                                         4.395399       0.000000

                          1      11    4dx2              0.050000       0.000000
                                                         0.148931      -0.006399
                                                         0.454433       0.341143
                                                         1.335408       1.062793
                                                         4.395399       0.000000
                          1      11    4dxy              0.050000       0.000000
                                                         0.148931      -0.011084
                                                         0.454433       0.590877
                                                         1.335408       1.840811
                                                         4.395399       0.000000
                          1      11    4dxz              0.050000       0.000000
                                                         0.148931      -0.011084
                                                         0.454433       0.590877
                                                         1.335408       1.840811
                                                         4.395399       0.000000
                          1      11    4dy2              0.050000       0.000000
                                                         0.148931      -0.006399
                                                         0.454433       0.341143
                                                         1.335408       1.062793
                                                         4.395399       0.000000
                          1      11    4dyz              0.050000       0.000000
                                                         0.148931      -0.011084
                                                         0.454433       0.590877
                                                         1.335408       1.840811
                                                         4.395399       0.000000
                          1      11    4dz2              0.050000       0.000000
                                                         0.148931      -0.006399
                                                         0.454433       0.341143
                                                         1.335408       1.062793
                                                         4.395399       0.000000

                          1      12    5dx2              0.050000      -0.000167
                                                         0.148931       0.000910
                                                         0.454433       0.391605
                                                         1.335408       0.205296
                                                         4.395399       0.000000
                          1      12    5dxy              0.050000      -0.000290
                                                         0.148931       0.001577
                                                         0.454433       0.678279
                                                         1.335408       0.355584
                                                         4.395399       0.000000
                          1      12    5dxz              0.050000      -0.000290
                                                         0.148931       0.001577
                                                         0.454433       0.678279
                                                         1.335408       0.355584
                                                         4.395399       0.000000
                          1      12    5dy2              0.050000      -0.000167
                                                         0.148931       0.000910
                                                         0.454433       0.391605
                                                         1.335408       0.205296
                                                         4.395399       0.000000
                          1      12    5dyz              0.050000      -0.000290
                                                         0.148931       0.001577
                                                         0.454433       0.678279
                                                         1.335408       0.355584
                                                         4.395399       0.000000
                          1      12    5dz2              0.050000      -0.000167
                                                         0.148931       0.000910
                                                         0.454433       0.391605
                                                         1.335408       0.205296
                                                         4.395399       0.000000

                          1      13    4fx3              0.050000       0.000000
                                                         0.148931       0.001654
                                                         0.454433       0.066745
                                                         1.335408       2.406605
                                                         4.395399      -5.031344
                          1      13    4fx2y             0.050000       0.000000
                                                         0.148931       0.003699
                                                         0.454433       0.149247
                                                         1.335408       5.381333
                                                         4.395399     -11.250428
                          1      13    4fx2z             0.050000       0.000000
                                                         0.148931       0.003699
                                                         0.454433       0.149247
                                                         1.335408       5.381333
                                                         4.395399     -11.250428
                          1      13    4fxy2             0.050000       0.000000
                                                         0.148931       0.003699
                                                         0.454433       0.149247
                                                         1.335408       5.381333
                                                         4.395399     -11.250428
                          1      13    4fxyz             0.050000       0.000000
                                                         0.148931       0.006406
                                                         0.454433       0.258503
                                                         1.335408       9.320743
                                                         4.395399     -19.486313
                          1      13    4fxz2             0.050000       0.000000
                                                         0.148931       0.003699
                                                         0.454433       0.149247
                                                         1.335408       5.381333
                                                         4.395399     -11.250428
                          1      13    4fy3              0.050000       0.000000
                                                         0.148931       0.001654
                                                         0.454433       0.066745
                                                         1.335408       2.406605
                                                         4.395399      -5.031344
                          1      13    4fy2z             0.050000       0.000000
                                                         0.148931       0.003699
                                                         0.454433       0.149247
                                                         1.335408       5.381333
                                                         4.395399     -11.250428
                          1      13    4fyz2             0.050000       0.000000
                                                         0.148931       0.003699
                                                         0.454433       0.149247
                                                         1.335408       5.381333
                                                         4.395399     -11.250428
                          1      13    4fz3              0.050000       0.000000
                                                         0.148931       0.001654
                                                         0.454433       0.066745
                                                         1.335408       2.406605
                                                         4.395399      -5.031344

                          1      14    5fx3              0.050000      -0.000035
                                                         0.148931       0.000216
                                                         0.454433       0.256015
                                                         1.335408      -0.160820
                                                         4.395399       0.000000
                          1      14    5fx2y             0.050000      -0.000077
                                                         0.148931       0.000483
                                                         0.454433       0.572467
                                                         1.335408      -0.359605
                                                         4.395399       0.000000
                          1      14    5fx2z             0.050000      -0.000077
                                                         0.148931       0.000483
                                                         0.454433       0.572467
                                                         1.335408      -0.359605
                                                         4.395399       0.000000
                          1      14    5fxy2             0.050000      -0.000077
                                                         0.148931       0.000483
                                                         0.454433       0.572467
                                                         1.335408      -0.359605
                                                         4.395399       0.000000
                          1      14    5fxyz             0.050000      -0.000134
                                                         0.148931       0.000837
                                                         0.454433       0.991542
                                                         1.335408      -0.622854
                                                         4.395399       0.000000
                          1      14    5fxz2             0.050000      -0.000077
                                                         0.148931       0.000483
                                                         0.454433       0.572467
                                                         1.335408      -0.359605
                                                         4.395399       0.000000
                          1      14    5fy3              0.050000      -0.000035
                                                         0.148931       0.000216
                                                         0.454433       0.256015
                                                         1.335408      -0.160820
                                                         4.395399       0.000000
                          1      14    5fy2z             0.050000      -0.000077
                                                         0.148931       0.000483
                                                         0.454433       0.572467
                                                         1.335408      -0.359605
                                                         4.395399       0.000000
                          1      14    5fyz2             0.050000      -0.000077
                                                         0.148931       0.000483
                                                         0.454433       0.572467
                                                         1.335408      -0.359605
                                                         4.395399       0.000000
                          1      14    5fz3              0.050000      -0.000035
                                                         0.148931       0.000216
                                                         0.454433       0.256015
                                                         1.335408      -0.160820
                                                         4.395399       0.000000

                          1      15    5gx4              0.050000       0.000008
                                                         0.148931       0.000769
                                                         0.454433       0.118509
                                                         1.335408       0.001274
                                                         4.395399       0.000000
                          1      15    5gx3y             0.050000       0.000022
                                                         0.148931       0.002034
                                                         0.454433       0.313545
                                                         1.335408       0.003370
                                                         4.395399       0.000000
                          1      15    5gx3z             0.050000       0.000022
                                                         0.148931       0.002034
                                                         0.454433       0.313545
                                                         1.335408       0.003370
                                                         4.395399       0.000000
                          1      15    5gx2y2            0.050000       0.000029
                                                         0.148931       0.002626
                                                         0.454433       0.404785
                                                         1.335408       0.004351
                                                         4.395399       0.000000
                          1      15    5gx2yz            0.050000       0.000050
                                                         0.148931       0.004548
                                                         0.454433       0.701109
                                                         1.335408       0.007536
                                                         4.395399       0.000000
                          1      15    5gx2z2            0.050000       0.000029
                                                         0.148931       0.002626
                                                         0.454433       0.404785
                                                         1.335408       0.004351
                                                         4.395399       0.000000
                          1      15    5gxy3             0.050000       0.000022
                                                         0.148931       0.002034
                                                         0.454433       0.313545
                                                         1.335408       0.003370
                                                         4.395399       0.000000
                          1      15    5gxy2z            0.050000       0.000050
                                                         0.148931       0.004548
                                                         0.454433       0.701109
                                                         1.335408       0.007536
                                                         4.395399       0.000000
                          1      15    5gxyz2            0.050000       0.000050
                                                         0.148931       0.004548
                                                         0.454433       0.701109
                                                         1.335408       0.007536
                                                         4.395399       0.000000
                          1      15    5gxz3             0.050000       0.000022
                                                         0.148931       0.002034
                                                         0.454433       0.313545
                                                         1.335408       0.003370
                                                         4.395399       0.000000
                          1      15    5gy4              0.050000       0.000008
                                                         0.148931       0.000769
                                                         0.454433       0.118509
                                                         1.335408       0.001274
                                                         4.395399       0.000000
                          1      15    5gy3z             0.050000       0.000022
                                                         0.148931       0.002034
                                                         0.454433       0.313545
                                                         1.335408       0.003370
                                                         4.395399       0.000000
                          1      15    5gy2z2            0.050000       0.000029
                                                         0.148931       0.002626
                                                         0.454433       0.404785
                                                         1.335408       0.004351
                                                         4.395399       0.000000
                          1      15    5gyz3             0.050000       0.000022
                                                         0.148931       0.002034
                                                         0.454433       0.313545
                                                         1.335408       0.003370
                                                         4.395399       0.000000
                          1      15    5gz4              0.050000       0.000008
                                                         0.148931       0.000769
                                                         0.454433       0.118509
                                                         1.335408       0.001274
                                                         4.395399       0.000000

                          2       1    1s         

     AE Potential information for                                            ALL

       Description:                                       All-electron potential
                                          Krack, Parrinello, PCCP 2, 2105 (2000)

       Gaussian exponent of the core charge distribution:               8.154466
       Electronic configuration (s p d ...):                           4   4   0


 MOLECULE KIND INFORMATION


 All atoms are their own molecule, skipping detailed information


 TOTAL NUMBERS AND MAXIMUM NUMBERS

  Total number of            - Atomic kinds:                                   2
                             - Atoms:                                          2
                             - Shell sets:                                     5
                             - Shells:                                        32
                             - Primitive Cartesian functions:                 31
                             - Cartesian basis functions:                    126
                             - Spherical basis functions:                    104

  Maximum angular momentum of the orbital basis functions:                     4


 MODULE QUICKSTEP: ATOMIC COORDINATES IN ANGSTROM

   Atom Kind Element         X             Y             Z       Z(eff)     Mass
      1    1 na   11     15.000000     15.000000     14.024421  11.0000  22.9898
      2    2 o     8     15.000000     15.000000     15.975579   8.0000  15.9994



 SCF PARAMETERS         Density guess:                                    ATOMIC
                        --------------------------------------------------------
                        max_scf:                                             500
                        max_scf_history:                                       0
                        max_diis:                                              4
                        --------------------------------------------------------
                        eps_scf:                                        1.00E-06
                        eps_scf_history:                                0.00E+00
                        eps_diis:                                       1.00E-01
                        eps_eigval:                                     1.00E-05
                        --------------------------------------------------------
                        level_shift [a.u.]:                             0.000000
                        added MOs                                        94    0
                        --------------------------------------------------------
                        Mixing method:                            BROYDEN_MIXING
                                                charge density mixing in g-space
                        --------------------------------------------------------
                        Smear method:                                FERMI_DIRAC
                        Electronic temperature [K]:                        300.0
                        Electronic temperature [a.u.]:                  9.50E-04
                        Accuracy threshold:                             1.00E-10
                        --------------------------------------------------------
                        No outer SCF

 PW_GRID| Information for grid number                                          1
 PW_GRID| Grid distributed over                                    48 processors
 PW_GRID| Real space group dimensions                                    48    1
 PW_GRID| the grid is blocked:                                                NO
 PW_GRID| Cutoff [a.u.]                                                    250.0
 PW_GRID| spherical cutoff:                                                   NO
 PW_GRID|   Bounds   1           -202     202                Points:         405
 PW_GRID|   Bounds   2           -202     202                Points:         405
 PW_GRID|   Bounds   3           -202     202                Points:         405
 PW_GRID| Volume element (a.u.^3)  0.2743E-02     Volume (a.u.^3)    182205.0337
 PW_GRID| Grid span                                                    FULLSPACE
 PW_GRID|   Distribution                         Average         Max         Min
 PW_GRID|   G-Vectors                          1383960.9     1384290     1383885
 PW_GRID|   G-Rays                                3417.2        3418        3417
 PW_GRID|   Real Space Points                  1383960.9     1476225     1312200

 PW_GRID| Information for grid number                                          2
 PW_GRID| Number of the reference grid                                         1
 PW_GRID| Grid distributed over                                    48 processors
 PW_GRID| Real space group dimensions                                    48    1
 PW_GRID| the grid is blocked:                                                NO
 PW_GRID| Cutoff [a.u.]                                                     83.3
 PW_GRID| spherical cutoff:                                                   NO
 PW_GRID|   Bounds   1           -120     119                Points:         240
 PW_GRID|   Bounds   2           -120     119                Points:         240
 PW_GRID|   Bounds   3           -120     119                Points:         240
 PW_GRID| Volume element (a.u.^3)  0.1318E-01     Volume (a.u.^3)    182205.0337
 PW_GRID| Grid span                                                    FULLSPACE
 PW_GRID|   Distribution                         Average         Max         Min
 PW_GRID|   G-Vectors                           288000.0      288720      287520
 PW_GRID|   G-Rays                                1200.0        1203        1198
 PW_GRID|   Real Space Points                   288000.0      288000      288000

 PW_GRID| Information for grid number                                          3
 PW_GRID| Number of the reference grid                                         1
 PW_GRID| Grid distributed over                                    48 processors
 PW_GRID| Real space group dimensions                                    48    1
 PW_GRID| the grid is blocked:                                                NO
 PW_GRID| Cutoff [a.u.]                                                     27.8
 PW_GRID| spherical cutoff:                                                   NO
 PW_GRID|   Bounds   1            -67      67                Points:         135
 PW_GRID|   Bounds   2            -67      67                Points:         135
 PW_GRID|   Bounds   3            -67      67                Points:         135
 PW_GRID| Volume element (a.u.^3)  0.7406E-01     Volume (a.u.^3)    182205.0337
 PW_GRID| Grid span                                                    FULLSPACE
 PW_GRID|   Distribution                         Average         Max         Min
 PW_GRID|   G-Vectors                            51257.8       51570       51030
 PW_GRID|   G-Rays                                 379.7         382         378
 PW_GRID|   Real Space Points                    51257.8       54675       36450

 PW_GRID| Information for grid number                                          4
 PW_GRID| Number of the reference grid                                         1
 PW_GRID| Grid distributed over                                    48 processors
 PW_GRID| Real space group dimensions                                    48    1
 PW_GRID| the grid is blocked:                                                NO
 PW_GRID| Cutoff [a.u.]                                                      9.3
 PW_GRID| spherical cutoff:                                                   NO
 PW_GRID|   Bounds   1            -40      39                Points:          80
 PW_GRID|   Bounds   2            -40      39                Points:          80
 PW_GRID|   Bounds   3            -40      39                Points:          80
 PW_GRID| Volume element (a.u.^3)  0.3559         Volume (a.u.^3)    182205.0337
 PW_GRID| Grid span                                                    FULLSPACE
 PW_GRID|   Distribution                         Average         Max         Min
 PW_GRID|   G-Vectors                            10666.7       10800       10560
 PW_GRID|   G-Rays                                 133.3         135         132
 PW_GRID|   Real Space Points                    10666.7       12800        6400

 POISSON| Solver                                                         WAVELET
 POISSON| Wavelet| Scaling function                                           40
 POISSON| Periodicity                                                       NONE

 RS_GRID| Information for grid number                                          1
 RS_GRID|   Bounds   1           -202     202                Points:         405
 RS_GRID|   Bounds   2           -202     202                Points:         405
 RS_GRID|   Bounds   3           -202     202                Points:         405
 RS_GRID| Real space distribution over                                  3 groups
 RS_GRID| Real space distribution along direction                              1
 RS_GRID| Border size                                                         37
 RS_GRID| Real space distribution over                                  4 groups
 RS_GRID| Real space distribution along direction                              2
 RS_GRID| Border size                                                         37
 RS_GRID| Real space distribution over                                  4 groups
 RS_GRID| Real space distribution along direction                              3
 RS_GRID| Border size                                                         37
 RS_GRID|   Distribution                         Average         Max         Min
 RS_GRID|   Planes                                 209.0         209         209
 RS_GRID|   Distribution                         Average         Max         Min
 RS_GRID|   Planes                                 175.2         176         175
 RS_GRID|   Distribution                         Average         Max         Min
 RS_GRID|   Planes                                 175.2         176         175

 RS_GRID| Information for grid number                                          2
 RS_GRID|   Bounds   1           -120     119                Points:         240
 RS_GRID|   Bounds   2           -120     119                Points:         240
 RS_GRID|   Bounds   3           -120     119                Points:         240
 RS_GRID| Real space distribution over                                  3 groups
 RS_GRID| Real space distribution along direction                              1
 RS_GRID| Border size                                                         40
 RS_GRID| Real space distribution over                                  4 groups
 RS_GRID| Real space distribution along direction                              2
 RS_GRID| Border size                                                         40
 RS_GRID| Real space distribution over                                  4 groups
 RS_GRID| Real space distribution along direction                              3
 RS_GRID| Border size                                                         40
 RS_GRID|   Distribution                         Average         Max         Min
 RS_GRID|   Planes                                 160.0         160         160
 RS_GRID|   Distribution                         Average         Max         Min
 RS_GRID|   Planes                                 140.0         140         140
 RS_GRID|   Distribution                         Average         Max         Min
 RS_GRID|   Planes                                 140.0         140         140

 RS_GRID| Information for grid number                                          3
 RS_GRID|   Bounds   1            -67      67                Points:         135
 RS_GRID|   Bounds   2            -67      67                Points:         135
 RS_GRID|   Bounds   3            -67      67                Points:         135
 RS_GRID| Real space fully replicated
 RS_GRID| Group size                                                           1

 RS_GRID| Information for grid number                                          4
 RS_GRID|   Bounds   1            -40      39                Points:          80
 RS_GRID|   Bounds   2            -40      39                Points:          80
 RS_GRID|   Bounds   3            -40      39                Points:          80
 RS_GRID| Real space fully replicated
 RS_GRID| Group size                                                           1

  HFX_INFO| Replica ID:                                                        1
  HFX_INFO| FRACTION:                                               0.2500000000
  HFX_INFO| Interaction Potential:                                       COULOMB
  HFX_INFO| EPS_SCHWARZ:                                                 1.0E-10
  HFX_INFO| EPS_SCHWARZ_FORCES                                           1.0E-08
  HFX_INFO| EPS_STORAGE_SCALING:                                         1.0E+00
  HFX_INFO| NBINS:                                                            64
  HFX_INFO| BLOCK_SIZE:                                                        1
  HFX_INFO| Number of periodic shells considered:                           NONE
  HFX_INFO| Number of periodic cells considered:                            NONE

 
 RI-RPA| using GPW style
 

 OVERLAP MATRIX CONDITION NUMBER
 1-Norm Condition Number (Estimate)
   CN : |A|*|A^-1|:  6.987E+000 *  4.563E+002   = 3.188E+003  Log(1-CN):  3.5035
 1-Norm and 2-Norm Condition Numbers using Diagonalization
   CN : |A|*|A^-1|:  6.987E+000 *  4.563E+002   = 3.188E+003  Log(1-CN):  3.5035
   CN : max/min ev:  4.735E+000 /  3.665E-003   = 1.292E+003  Log(2-CN):  3.1113

 Number of electrons:                                                         19
 Number of occupied orbitals:                                                 10
 Number of molecular orbitals:                                               104

 Number of orbital functions:                                                104
 Number of independent orbital functions:                                    104

 Extrapolation method: initial_guess

 Atomic guess: The first density matrix is obtained in terms of atomic orbitals
               and electronic configurations assigned to each atomic kind

 Guess for atomic kind: na

 Electronic structure
    Total number of core electrons                                          0.00
    Total number of valence electrons                                      11.00
    Total number of electrons                                              11.00
    Multiplicity                                                   not specified
    S      2.00  2.00  1.00
    P      6.00


 *******************************************************************************
                  Iteration          Convergence                     Energy [au]
 *******************************************************************************
                          1         1.30869                    -161.268901587082
                          2         1.00993                    -161.327530509109
                          3        0.472423E-01                -161.422259576961
                          4        0.218816E-02                -161.422491730303
                          5        0.827645E-04                -161.422492236778
                          6        0.130026E-05                -161.422492238071
                          7        0.259515E-05                -161.422492238071
                          8        0.576912E-07                -161.422492238072

 Energy components [Hartree]           Total Energy ::         -161.422492238072
                                        Band Energy ::          -86.035937242319
                                     Kinetic Energy ::          161.612936180697
                                   Potential Energy ::         -323.035428418769
                                      Virial (-V/T) ::            1.998821604587
                                        Core Energy ::         -227.607300295333
                                          XC Energy ::          -13.533029400038
                                     Coulomb Energy ::           79.717837457299

 Orbital energies  State     L     Occupation   Energy[a.u.]          Energy[eV]

                       1     0          2.000     -37.712638        -1026.213080
                       2     0          2.000      -2.064538          -56.178926
                       3     0          1.000      -0.103400           -2.813659

                       1     1          6.000      -1.063031          -28.926540


 Total Electron Density at R=0:                                       806.371355

 Guess for atomic kind: o

 Electronic structure
    Total number of core electrons                                          0.00
    Total number of valence electrons                                       8.00
    Total number of electrons                                               8.00
    Multiplicity                                                   not specified
    S      2.00  2.00
    P      4.00


 *******************************************************************************
                  Iteration          Convergence                     Energy [au]
 *******************************************************************************
                          1        0.849670                     -74.335674168869
                          2        0.869389                     -74.324859694107
                          3        0.697432E-01                 -74.439224088863
                          4        0.175161E-02                 -74.439997666440
                          5        0.192648E-03                 -74.439998082258
                          6        0.198994E-05                 -74.439998087622
                          7        0.205802E-05                 -74.439998087622
                          8        0.520853E-08                 -74.439998087622

 Energy components [Hartree]           Total Energy ::          -74.439998087622
                                        Band Energy ::          -40.680979348956
                                     Kinetic Energy ::           74.005891336564
                                   Potential Energy ::         -148.445889424186
                                      Virial (-V/T) ::            2.005865840452
                                        Core Energy ::         -102.914102294566
                                          XC Energy ::           -7.750574740974
                                     Coulomb Energy ::           36.224678947918

 Orbital energies  State     L     Occupation   Energy[a.u.]          Energy[eV]

                       1     0          2.000     -18.778735         -510.995367
                       2     0          2.000      -0.871403          -23.712092

                       1     1          4.000      -0.345176           -9.392706


 Total Electron Density at R=0:                                       296.644588
 Re-scaling the density matrix to get the right number of electrons
                  # Electrons              Trace(P)               Scaling factor
                           19                19.000                        1.000


 SCF WAVEFUNCTION OPTIMIZATION

  Step     Update method      Time    Convergence         Total energy    Change
  ------------------------------------------------------------------------------

  HFX_MEM_INFO| Est. max. program size before HFX [MiB]:                    1349
 POWELL| Error in trust region
 POWELL| Error in trust region
 POWELL| Error in trust region
 POWELL| Error in trust region
 POWELL| Error in trust region
 POWELL| Error in trust region
 POWELL| Error in trust region
 POWELL| Error in trust region
 POWELL| Error in trust region
 POWELL| Error in trust region
 POWELL| Error in trust region
 POWELL| Error in trust region
 POWELL| Error in trust region
 POWELL| Error in trust region
 POWELL| Error in trust region
 POWELL| Error in trust region
 POWELL| Error in trust region
 POWELL| Error in trust region
 POWELL| Error in trust region
 POWELL| Error in trust region
 POWELL| Error in trust region
 POWELL| Error in trust region
 POWELL| Error in trust region
 POWELL| Error in trust region
 POWELL| Error in trust region
 POWELL| Error in trust region
 POWELL| Error in trust region
 POWELL| Error in trust region
 POWELL| Error in trust region
 POWELL| Error in trust region
 POWELL| Error in trust region
 POWELL| Error in trust region
 POWELL| Error in trust region
 POWELL| Error in trust region
 POWELL| Error in trust region
 POWELL| Error in trust region
 POWELL| Error in trust region
 POWELL| Error in trust region
 POWELL| Error in trust region
 POWELL| Error in trust region
 POWELL| Error in trust region
 POWELL| Error in trust region
 POWELL| Error in trust region
 POWELL| Error in trust region
 POWELL| Error in trust region
 POWELL| Error in trust region
 POWELL| Error in trust region
 POWELL| Error in trust region
  HFX_MEM_INFO| Number of cart. primitive ERI's calculated:           9974520440
  HFX_MEM_INFO| Number of sph. ERI's calculated:                        44205505
  HFX_MEM_INFO| Number of sph. ERI's stored in-core:                    44205505
  HFX_MEM_INFO| Number of sph. ERI's stored on disk:                           0
  HFX_MEM_INFO| Number of sph. ERI's calculated on the fly:                    0
  HFX_MEM_INFO| Total memory consumption ERI's RAM [MiB]:                    182
  HFX_MEM_INFO| Whereof max-vals [MiB]:                                        2
  HFX_MEM_INFO| Total compression factor ERI's RAM:                         1.86
  HFX_MEM_INFO| Total memory consumption ERI's disk [MiB]:                     0
  HFX_MEM_INFO| Total compression factor ERI's disk:                        0.00
  HFX_MEM_INFO| Size of density/Fock matrix [MiB]:                             0
  HFX_MEM_INFO| Size of buffers [MiB]:                                       279
  HFX_MEM_INFO| Est. max. program size after HFX  [MiB]:                    2183

     1 NoMix/Diag. 0.10E+00  538.4     0.31313438      -237.0565430274 -2.37E+02
     2 Broy./Diag. 0.10E+00    3.2     0.10128371      -236.0246806564  1.03E+00
     3 Broy./Diag. 0.10E+00    3.2     0.02970790      -236.4924171992 -4.68E-01
     4 Broy./Diag. 0.10E+00    3.2     0.05344533      -236.8689204457 -3.77E-01
     5 Broy./Diag. 0.10E+00    3.2     0.05438293      -237.2165867481 -3.48E-01
     6 Broy./Diag. 0.10E+00    3.3     0.02893520      -236.9678385967  2.49E-01
     7 Broy./Diag. 0.10E+00    3.4     0.01975695      -237.0734769931 -1.06E-01
     8 Broy./Diag. 0.10E+00    3.5     0.03942802      -237.0748311997 -1.35E-03
     9 Broy./Diag. 0.10E+00    3.5     0.07587393      -237.0779180240 -3.09E-03
    10 Broy./Diag. 0.10E+00    3.5     0.00981480      -237.0932291069 -1.53E-02
    11 Broy./Diag. 0.10E+00    3.5     0.00921663      -237.1191861277 -2.60E-02
    12 Broy./Diag. 0.10E+00    3.5     0.01354451      -237.1846164312 -6.54E-02
    13 Broy./Diag. 0.10E+00    3.4     0.00491502      -237.2011929082 -1.66E-02
    14 Broy./Diag. 0.10E+00    3.5     0.00883037      -237.2225593781 -2.14E-02
    15 Broy./Diag. 0.10E+00    3.5     0.00575999      -237.2266913874 -4.13E-03
    16 Broy./Diag. 0.10E+00    3.5     0.00210373      -237.2051842254  2.15E-02
    17 Broy./Diag. 0.10E+00    3.5     0.00483194      -237.1956333081  9.55E-03
    18 Broy./Diag. 0.10E+00    3.5     0.01678763      -237.2101484208 -1.45E-02
    19 Broy./Diag. 0.10E+00    3.5     0.02225694      -237.3557613243 -1.46E-01
    20 Broy./Diag. 0.10E+00    3.5     0.03172988      -237.4212198963 -6.55E-02
    21 Broy./Diag. 0.10E+00    3.5     0.01564070      -237.2495125657  1.72E-01
    22 Broy./Diag. 0.10E+00    3.5     0.00656772      -237.3278279945 -7.83E-02
    23 Broy./Diag. 0.10E+00    3.4     0.00833602      -237.2686722215  5.92E-02
    24 Broy./Diag. 0.10E+00    3.5     0.00366656      -237.2172947278  5.14E-02
    25 Broy./Diag. 0.10E+00    3.5     0.00164017      -237.2310557113 -1.38E-02
    26 Broy./Diag. 0.10E+00    3.5     0.00184993      -237.2240839259  6.97E-03
    27 Broy./Diag. 0.10E+00    3.5     0.00393638      -237.2270728361 -2.99E-03
    28 Broy./Diag. 0.10E+00    3.4     0.00363570      -237.2130653746  1.40E-02
    29 Broy./Diag. 0.10E+00    3.4     0.00198058      -237.2074663332  5.60E-03
    30 Broy./Diag. 0.10E+00    3.5     0.00125370      -237.1976444931  9.82E-03
    31 Broy./Diag. 0.10E+00    3.5     0.00118406      -237.2031180850 -5.47E-03
    32 Broy./Diag. 0.10E+00    3.5     0.00074333      -237.2103458499 -7.23E-03
    33 Broy./Diag. 0.10E+00    3.5     0.00028735      -237.2063935687  3.95E-03
    34 Broy./Diag. 0.10E+00    3.6     0.00020857      -237.2060442446  3.49E-04
    35 Broy./Diag. 0.10E+00    3.5     0.00049696      -237.2037941748  2.25E-03
    36 Broy./Diag. 0.10E+00    3.4     0.00055416      -237.2035587898  2.35E-04
    37 Broy./Diag. 0.10E+00    3.4     0.00041603      -237.2032316418  3.27E-04
    38 Broy./Diag. 0.10E+00    3.5     0.00041613      -237.2031594461  7.22E-05
    39 Broy./Diag. 0.10E+00    3.4     0.00042582      -237.2023651398  7.94E-04
    40 Broy./Diag. 0.10E+00    3.5     0.00029050      -237.2024332054 -6.81E-05
    41 Broy./Diag. 0.10E+00    3.5     0.00010009      -237.2031198058 -6.87E-04
    42 Broy./Diag. 0.10E+00    3.4     0.00023663      -237.2033082895 -1.88E-04
    43 Broy./Diag. 0.10E+00    3.5     0.00020589      -237.2042618435 -9.54E-04
    44 Broy./Diag. 0.10E+00    3.6     0.00023822      -237.2037430341  5.19E-04
    45 Broy./Diag. 0.10E+00    3.4     0.00006483      -237.2037068220  3.62E-05
    46 Broy./Diag. 0.10E+00    3.5     0.00003189      -237.2031978839  5.09E-04
    47 Broy./Diag. 0.10E+00    3.4     0.00008969      -237.2030217437  1.76E-04
    48 Broy./Diag. 0.10E+00    3.5     0.00007026      -237.2031873812 -1.66E-04
    49 Broy./Diag. 0.10E+00    3.5     0.00007959      -237.2035023757 -3.15E-04
    50 Broy./Diag. 0.10E+00    3.5     0.00007492      -237.2033239330  1.78E-04
    51 Broy./Diag. 0.10E+00    3.5     0.00002510      -237.2032257719  9.82E-05
    52 Broy./Diag. 0.10E+00    3.5     0.00003875      -237.2031017749  1.24E-04
    53 Broy./Diag. 0.10E+00    3.5     0.00008756      -237.2031687196 -6.69E-05
    54 Broy./Diag. 0.10E+00    3.4     0.00003104      -237.2031025561  6.62E-05
    55 Broy./Diag. 0.10E+00    3.5     0.00004065      -237.2031809807 -7.84E-05
    56 Broy./Diag. 0.10E+00    3.6     0.00001838      -237.2031915325 -1.06E-05
    57 Broy./Diag. 0.10E+00    3.5     0.00008626      -237.2031432569  4.83E-05
    58 Broy./Diag. 0.10E+00    3.5     0.00003031      -237.2031461427 -2.89E-06
    59 Broy./Diag. 0.10E+00    3.5     0.00006542      -237.2031720140 -2.59E-05
    60 Broy./Diag. 0.10E+00    3.5     0.00002927      -237.2031934382 -2.14E-05
    61 Broy./Diag. 0.10E+00    3.5     0.00001860      -237.2031936496 -2.11E-07
    62 Broy./Diag. 0.10E+00    3.5     0.00001390      -237.2031795938  1.41E-05
    63 Broy./Diag. 0.10E+00    3.5     0.00000766      -237.2031461362  3.35E-05
    64 Broy./Diag. 0.10E+00    3.5     0.00000567      -237.2031475516 -1.42E-06
    65 Broy./Diag. 0.10E+00    3.5     0.00000959      -237.2031463701  1.18E-06
    66 Broy./Diag. 0.10E+00    3.4     0.00000343      -237.2031485358 -2.17E-06
    67 Broy./Diag. 0.10E+00    3.5     0.00000330      -237.2031425796  5.96E-06
    68 Broy./Diag. 0.10E+00    3.5     0.00000205      -237.2031476508 -5.07E-06
    69 Broy./Diag. 0.10E+00    3.5     0.00000281      -237.2031669157 -1.93E-05
    70 Broy./Diag. 0.10E+00    3.5     0.00000302      -237.2031766998 -9.78E-06
    71 Broy./Diag. 0.10E+00    3.5     0.00000212      -237.2031579511  1.87E-05
    72 Broy./Diag. 0.10E+00    3.5     0.00000089      -237.2031663429 -8.39E-06

  *** SCF run converged in    72 steps ***


  Electronic density on regular grids:        -13.4402841539        5.5597158461
  Core density on regular grids:               19.0000000000        0.0000000000
  Hard and soft densities (Lebedev):          -25.6352903690      -20.0755672607
  Total Rho_soft + Rho1_hard - Rho1_soft      -19.0000072621
  Total charge density (r-space):              -0.0000072621
  Total Rho_soft + Rho0_soft (g-space):        -0.0000070189

  Overlap energy of the core charge distribution:               0.00000000000000
  Self energy of the core charge distribution:               -211.48504175054882
  Core Hamiltonian energy:                                    -33.41274222077922
  Hartree energy:                                              27.05442441358263
  Exchange-correlation energy:                                 -6.58394803418192
  Hartree-Fock Exchange energy:                                -5.51453589981683

  GAPW| Exc from hard and soft atomic rho1:                   -10.67483612773718
  GAPW| local Eh = 1 center integrals:                          3.41483031804769
  Electronic entropic energy:                                  -0.00131704147593
  Fermi energy:                                                -0.16923837959632

  Total energy:                                              -237.20316634290958

 !-----------------------------------------------------------------------------!
                     Mulliken Population Analysis

 #  Atom  Element  Kind  Atomic population                           Net charge
       1     na       1          9.809790                              1.190210
       2     o        2          9.190210                             -1.190210
 # Total charge                             19.000000                 -0.000000

 !-----------------------------------------------------------------------------!

 !-----------------------------------------------------------------------------!
                           Hirshfeld Charges

  #Atom  Element  Kind  Ref Charge     Population                    Net charge
      1       na     1      11.000         11.030                        -0.030
      2       o      2       8.000          7.969                         0.031

  Total Charge                                                            0.000
 !-----------------------------------------------------------------------------!


 RI-RPA section
 --------------

  Used number of processes per group:                                          1
  Maximum allowed memory usage per MPI process:                      1024.00 MiB
  RI_INFO| Cholesky decomposition group size:                                  4
  RI_INFO| Number of groups for auxiliary basis functions                     48

  RI_INFO| RI metric:                                                    COULOMB
  RI_INFO| Number of auxiliary basis functions:                              149
  GENERAL_INFO| Number of basis functions:                                   104
  GENERAL_INFO| Number of occupied orbitals:                                  10
  GENERAL_INFO| Number of virtual orbitals:                                   94
  RI_INFO| Total memory for (ia|K) integrals:                           1.07 MiB
  RI_INFO| Total memory for G0W0-(nm|K) integrals:                     12.30 MiB
  RI_INFO| Total memory for (ij|K) integrals:                           0.11 MiB
  RI_INFO| Total memory for (ab|K) integrals:                          10.04 MiB
  RI_INFO| Group size for frequency integration:                              48
  INTEG_INFO| Clenshaw-Curtius quadrature
  INTEG_INFO| Number of integration points:                                  100
  INTEG_INFO| Number of integration points per RPA group:                    100
  MATRIX_INFO| Number row processes:                                           3
  MATRIX_INFO| Number column processes:                                       16
  MATRIX_INFO| Row block size:                                                24
  MATRIX_INFO| Column block size:                                             29
  INTEG_INFO| Scaling parameter:                                         0.20000
  INTEG_INFO| Started with Integration point   1 of 100
  INTEG_INFO| Started with Integration point   2 of 100
  INTEG_INFO| Started with Integration point   3 of 100
  INTEG_INFO| Started with Integration point   4 of 100
  INTEG_INFO| Started with Integration point   5 of 100
  INTEG_INFO| Started with Integration point   6 of 100
  INTEG_INFO| Started with Integration point   7 of 100
  INTEG_INFO| Started with Integration point   8 of 100
  INTEG_INFO| Started with Integration point   9 of 100
  INTEG_INFO| Started with Integration point  10 of 100
  INTEG_INFO| Started with Integration point  11 of 100
  INTEG_INFO| Started with Integration point  12 of 100
  INTEG_INFO| Started with Integration point  13 of 100
  INTEG_INFO| Started with Integration point  14 of 100
  INTEG_INFO| Started with Integration point  15 of 100
  INTEG_INFO| Started with Integration point  16 of 100
  INTEG_INFO| Started with Integration point  17 of 100
  INTEG_INFO| Started with Integration point  18 of 100
  INTEG_INFO| Started with Integration point  19 of 100
  INTEG_INFO| Started with Integration point  20 of 100
  INTEG_INFO| Started with Integration point  21 of 100
  INTEG_INFO| Started with Integration point  22 of 100
  INTEG_INFO| Started with Integration point  23 of 100
  INTEG_INFO| Started with Integration point  24 of 100
  INTEG_INFO| Started with Integration point  25 of 100
  INTEG_INFO| Started with Integration point  26 of 100
  INTEG_INFO| Started with Integration point  27 of 100
  INTEG_INFO| Started with Integration point  28 of 100
  INTEG_INFO| Started with Integration point  29 of 100
  INTEG_INFO| Started with Integration point  30 of 100
  INTEG_INFO| Started with Integration point  31 of 100
  INTEG_INFO| Started with Integration point  32 of 100
  INTEG_INFO| Started with Integration point  33 of 100
  INTEG_INFO| Started with Integration point  34 of 100
  INTEG_INFO| Started with Integration point  35 of 100
  INTEG_INFO| Started with Integration point  36 of 100
  INTEG_INFO| Started with Integration point  37 of 100
  INTEG_INFO| Started with Integration point  38 of 100
  INTEG_INFO| Started with Integration point  39 of 100
  INTEG_INFO| Started with Integration point  40 of 100
  INTEG_INFO| Started with Integration point  41 of 100
  INTEG_INFO| Started with Integration point  42 of 100
  INTEG_INFO| Started with Integration point  43 of 100
  INTEG_INFO| Started with Integration point  44 of 100
  INTEG_INFO| Started with Integration point  45 of 100
  INTEG_INFO| Started with Integration point  46 of 100
  INTEG_INFO| Started with Integration point  47 of 100
  INTEG_INFO| Started with Integration point  48 of 100
  INTEG_INFO| Started with Integration point  49 of 100
  INTEG_INFO| Started with Integration point  50 of 100
  INTEG_INFO| Started with Integration point  51 of 100
  INTEG_INFO| Started with Integration point  52 of 100
  INTEG_INFO| Started with Integration point  53 of 100
  INTEG_INFO| Started with Integration point  54 of 100
  INTEG_INFO| Started with Integration point  55 of 100
  INTEG_INFO| Started with Integration point  56 of 100
  INTEG_INFO| Started with Integration point  57 of 100
  INTEG_INFO| Started with Integration point  58 of 100
  INTEG_INFO| Started with Integration point  59 of 100
  INTEG_INFO| Started with Integration point  60 of 100
  INTEG_INFO| Started with Integration point  61 of 100
  INTEG_INFO| Started with Integration point  62 of 100
  INTEG_INFO| Started with Integration point  63 of 100
  INTEG_INFO| Started with Integration point  64 of 100
  INTEG_INFO| Started with Integration point  65 of 100
  INTEG_INFO| Started with Integration point  66 of 100
  INTEG_INFO| Started with Integration point  67 of 100
  INTEG_INFO| Started with Integration point  68 of 100
  INTEG_INFO| Started with Integration point  69 of 100
  INTEG_INFO| Started with Integration point  70 of 100
  INTEG_INFO| Started with Integration point  71 of 100
  INTEG_INFO| Started with Integration point  72 of 100
  INTEG_INFO| Started with Integration point  73 of 100
  INTEG_INFO| Started with Integration point  74 of 100
  INTEG_INFO| Started with Integration point  75 of 100
  INTEG_INFO| Started with Integration point  76 of 100
  INTEG_INFO| Started with Integration point  77 of 100
  INTEG_INFO| Started with Integration point  78 of 100
  INTEG_INFO| Started with Integration point  79 of 100
  INTEG_INFO| Started with Integration point  80 of 100
  INTEG_INFO| Started with Integration point  81 of 100
  INTEG_INFO| Started with Integration point  82 of 100
  INTEG_INFO| Started with Integration point  83 of 100
  INTEG_INFO| Started with Integration point  84 of 100
  INTEG_INFO| Started with Integration point  85 of 100
  INTEG_INFO| Started with Integration point  86 of 100
  INTEG_INFO| Started with Integration point  87 of 100
  INTEG_INFO| Started with Integration point  88 of 100
  INTEG_INFO| Started with Integration point  89 of 100
  INTEG_INFO| Started with Integration point  90 of 100
  INTEG_INFO| Started with Integration point  91 of 100
  INTEG_INFO| Started with Integration point  92 of 100
  INTEG_INFO| Started with Integration point  93 of 100
  INTEG_INFO| Started with Integration point  94 of 100
  INTEG_INFO| Started with Integration point  95 of 100
  INTEG_INFO| Started with Integration point  96 of 100
  INTEG_INFO| Started with Integration point  97 of 100
  INTEG_INFO| Started with Integration point  98 of 100
  INTEG_INFO| Started with Integration point  99 of 100
  INTEG_INFO| Started with Integration point 100 of 100
  PERFORMANCE| Average DGEMM flop rate (Gflops / MPI rank):                 0.87
  
  
  ******************************************************************************
  **                                                                          **
  **                        GW QUASIPARTICLE ENERGIES                         **
  **                                                                          **
  ******************************************************************************
   
   
  The GW quasiparticle energies are calculated according to: 
   
                      E_GW = E_SCF + Sigc(E_GW) + Sigx - vxc 
   
  Upper equation is solved self-consistently for E_GW, see Eq. (12) in J. Phys.
  Chem. Lett. 9, 306 (2018), doi: 10.1021/acs.jpclett.7b02740
  
  
  ------------
  G0W0 results
  ------------
   
  Molecular orbital   E_SCF (eV)       Sigc (eV)   Sigx-vxc (eV)       E_GW (eV)
     1 ( occ )        -1049.3277         -2.3577        -51.2054      -1102.8908
     2 ( occ )         -520.5978         -2.2754        -36.7662       -559.6394
     3 ( occ )          -61.4891          7.7633        -14.4581        -68.1838
     4 ( occ )          -31.9430          4.1989         -9.1548        -36.8989
     5 ( occ )          -31.9268          4.2169         -9.1480        -36.8579
     6 ( occ )          -31.8936          4.3268         -9.2448        -36.8117
     7 ( occ )          -21.6982          7.2031         -9.6925        -24.1876
     8 ( occ )           -6.0784          2.9843         -5.0006         -8.0947
     9 ( occ )           -5.8584          2.9249         -5.0238         -7.9573
    10 ( occ )           -4.6052          4.0160         -7.7851         -8.3742
    11 ( vir )           -1.4516         -0.2623          1.5058         -0.2081
    12 ( vir )            0.2055         -0.1205          0.7284          0.8134
    13 ( vir )            0.2219         -0.1155          0.7723          0.8788
    14 ( vir )            0.6198         -0.1147          0.7267          1.2318
    15 ( vir )            1.3250         -0.0311          0.4112          1.7051
    16 ( vir )            1.3255         -0.0311          0.4113          1.7056
    17 ( vir )            1.6147         -0.0358          0.4703          2.0492
    18 ( vir )            1.6350         -0.0361          0.5252          2.1242
    19 ( vir )            1.7702         -0.0872          0.6602          2.3433
    20 ( vir )            2.1569         -0.3188          1.3929          3.2310
    21 ( vir )            2.7912         -0.2783          1.2949          3.8078
    22 ( vir )            2.8207         -0.2587          1.3267          3.8887
    23 ( vir )            3.4481         -0.2641          1.3501          4.5341
    24 ( vir )            4.4881         -0.2144          1.2776          5.5513
    25 ( vir )            4.4899         -0.2152          1.2774          5.5521
    26 ( vir )            5.2430         -0.2730          1.4035          6.3735
    27 ( vir )            5.2895         -0.2491          1.5801          6.6205
    28 ( vir )            5.8209         -0.3923          1.6722          7.1008
    29 ( vir )            9.4220         -0.5425          2.3033         11.1829
    30 ( vir )           16.9076         -1.6899          3.6167         18.8344
    31 ( vir )           17.1018         -1.6668          4.2610         19.6959
    32 ( vir )           18.2033         -0.8346          4.3562         21.7249
    33 ( vir )           18.2093         -0.9274          4.6568         21.9387
    34 ( vir )           18.2444         -0.8721          4.6482         22.0205
    35 ( vir )           18.8182         -1.1733          3.9742         21.6191
    36 ( vir )           18.9352         -1.1745          4.1785         21.9392
    37 ( vir )           19.6114         -0.8067          3.7612         22.5659
    38 ( vir )           19.6122         -0.8036          3.7612         22.5698
    39 ( vir )           20.2983         -1.5813          3.8621         22.5791
    40 ( vir )           21.8331         -1.1269          4.4488         25.1550
    41 ( vir )           24.6302         -2.1118          5.3883         27.9066
    42 ( vir )           31.4724         -2.3269          4.9594         34.1050
    43 ( vir )           31.4966         -2.3374          4.9153         34.0745
    44 ( vir )           35.7120         -2.3856          5.2214         38.5478
    45 ( vir )           36.0747         -2.5764          5.6670         39.1654
    46 ( vir )           37.6072         -2.0802          4.9750         40.5020
    47 ( vir )           46.3568         -2.3108          5.5431         49.5891
    48 ( vir )           46.3585         -2.5012          5.5107         49.3680
    49 ( vir )           46.9579         -2.2529          5.3591         50.0641
    50 ( vir )           46.9600         -2.2606          5.3565         50.0560
    51 ( vir )           49.4639         -2.8982          5.9096         52.4752
    52 ( vir )           50.5578         -2.8487          5.6112         53.3203
    53 ( vir )           50.8451         -2.8735          5.8823         53.8539
    54 ( vir )           52.5793         -1.3826          5.2377         56.4344
    55 ( vir )           52.5795         -1.3793          5.2362         56.4365
    56 ( vir )           56.2760         -1.8409          5.4688         59.9039
    57 ( vir )           56.2813         -1.8089          5.4586         59.9310
    58 ( vir )           57.3811         -1.7035          6.1654         61.8429
    59 ( vir )           59.1123         -1.8272          5.0712         62.3563
    60 ( vir )           59.1124         -1.7976          5.0711         62.3858
    61 ( vir )           59.4201         -1.8529          5.5946         63.1618
    62 ( vir )           59.6689         -2.1560          5.8214         63.3343
    63 ( vir )           62.1218         -1.7790          5.4287         65.7715
    64 ( vir )           62.1219         -1.7779          5.4306         65.7746
    65 ( vir )           62.5760         -2.1495          5.8907         66.3172
    66 ( vir )           65.5917         -1.8075          5.5991         69.3833
    67 ( vir )           65.6083         -1.7693          5.6049         69.4438
    68 ( vir )           67.2850         -1.6281          5.8399         71.4969
    69 ( vir )           67.4501         -1.9917          5.9952         71.4536
    70 ( vir )           82.7269         -3.7335          9.1090         88.1024
    71 ( vir )           86.7827         -0.3626          6.1345         92.5545
    72 ( vir )           91.8243         -2.7667          9.8738         98.9315
    73 ( vir )           91.8245         -2.8158          9.8737         98.8824
    74 ( vir )           93.9783         -2.1964          9.9110        101.6928
    75 ( vir )           94.0509         -3.8256          9.9956        100.2209
    76 ( vir )           95.3806         -3.0205          9.9697        102.3298
    77 ( vir )           99.1987         -3.0028         10.9171        107.1130
    78 ( vir )           99.5902         -2.1687         11.8891        109.3106
    79 ( vir )          116.2377          7.6917         12.3605        136.2899
    80 ( vir )          118.1874          3.7151         10.2278        132.1303
    81 ( vir )          118.2288          3.5368         10.1924        131.9579
    82 ( vir )          122.7586          1.5964         10.2428        134.5979
    83 ( vir )          123.3965          2.7519         10.9752        137.1236
    84 ( vir )          143.7128          1.6739         10.3915        155.7783
    85 ( vir )          158.9031          1.5856         10.3197        170.8084
    86 ( vir )          158.9037          3.6189         10.3303        172.8528
    87 ( vir )          159.3751          3.5839         10.5247        173.4837
    88 ( vir )          159.3957          2.1267         10.6058        172.1282
    89 ( vir )          161.5787          1.0477         10.4877        173.1141
    90 ( vir )          162.3048          1.7302         11.0082        175.0432
    91 ( vir )          163.9895          0.4292         10.8356        175.2543
    92 ( vir )          242.2267          0.6360         13.4909        256.3536
    93 ( vir )          291.4831          2.4091         20.7385        314.6306
    94 ( vir )          291.5002          2.7289         20.7441        314.9733
    95 ( vir )          299.4010          2.7857         21.2132        323.3999
    96 ( vir )          653.6758          0.4495         18.7737        672.8989
    97 ( vir )          653.7283          0.4605         18.7170        672.9059
    98 ( vir )          716.9062          0.3393         19.7868        737.0323
    99 ( vir )          717.4808          0.4241         20.5051        738.4100
   100 ( vir )          812.2634          0.3691         21.2640        833.8964
   101 ( vir )         1315.4545          0.3762         41.4532       1357.2839
   102 ( vir )         2091.6844          0.4330         51.0298       2143.1471
   103 ( vir )         2092.1198          0.2676         51.3228       2143.7103
   104 ( vir )         2255.1252          0.0982         53.8283       2309.0517
   
  G0W0 HOMO-LUMO gap (eV)                                                 7.7492
  
  ------------------------------------------------------------------------------
  
 *******************************************************************************
 **                                                                           **
 **           Bethe Salpeter equation (BSE) for excitation energies           **
 **               solved without Tamm-Dancoff approximation (TDA)             **
 **                                                                           **
 *******************************************************************************
  
 BSE| No cutoff given for occupied orbitals
 BSE| No cutoff given for empty orbitals
 BSE| First occupied index                                                     1
 BSE| Last empty index (not MO index!)                                        94
 BSE| Energy of first occupied index [eV]                              -1102.891
 BSE| Energy of last empty index [eV]                                   2309.052
 BSE| Energy difference of first occupied index to HOMO [eV]            1094.517
 BSE| Energy difference of last empty index to LUMO [eV]                2309.260
 BSE| Number of GW-corrected occupied MOs                                     10
 BSE| Number of GW-corrected empty MOs                                        94
 BSE|
 BSE| No truncation of BSE matrices applied
 BSE|
 BSE| Total peak memory estimate from BSE [GB]                         6.583E-02
 BSE| Peak memory estimate per MPI rank from BSE [GB]                      0.001
 BSE|
 BSE| Diagonalizing aux. matrix with size of A. This will take around 0.E+00 s.
 BSE| Diagonalizing C. This will take around 0.E+00 s.
 BSE|
 BSE|
 BSE| **************************************************************************
 BSE| *      Full ("ABBA") Bethe Salpeter equation (BSE) (i.e. without TDA)    *
 BSE| **************************************************************************
 BSE|
 BSE| The excitations are calculated by diagonalizing the BSE without the TDA:
 BSE|
 BSE|                |A B| |X^n|       |1  0| |X^n|
 BSE|                |B A| |Y^n| = Ω^n |0 -1| |Y^n|
 BSE|
 BSE| i.e. in index notation:
 BSE|
 BSE|   sum_jb ( A_ia,jb   X_jb^n + B_ia,jb   Y_jb^n ) = Ω^n X_ia^n
 BSE| - sum_jb ( B_ia,jb   X_jb^n + A_ia,jb   Y_jb^n ) = Ω^n Y_ia^n
 BSE|
 BSE|
 BSE| i,j:       occupied molecular orbitals, i.e. state in          [   1,  10]
 BSE| a,b:       unoccupied molecular orbitals, i.e. state in        [  11, 104]
 BSE| n:         Excitation index
 BSE|
 BSE| A_ia,jb = (ε_a-ε_i) δ_ij δ_ab + α * v_ia,jb - W_ij,ab
 BSE| B_ia,jb = α * v_ia,jb - W_ib,aj
 BSE|
 BSE| prelim Ref.: Eqs. (24-27),(30),(35)
 BSE| in PRB 92,045209 (2015); http://dx.doi.org/10.1103/PhysRevB.92.045209 .
 BSE|
 BSE| The BSE is solved for Ω^n and X_ia^n as a hermitian problem, e.g. Eq.(42)
 BSE| in PRB 92,045209 (2015); http://dx.doi.org/10.1103/PhysRevB.92.045209 .
 BSE|
 BSE| ε_...:                 GW quasiparticle energy
 BSE| δ_...:                 Kronecker delta
 BSE| α:                     spin-dependent factor
 BSE| v_...:                 Electron-hole exchange interaction
 BSE| W_... = 1/ϵ v_...:     Direct interaction screened by 
 BSE|                        dielectric function ϵ(ω=0)
 BSE|
 BSE|
 BSE| The spin-dependent factor is for the requested Singlet is α = 2.0
 BSE|
 BSE| Excitation energies from solving the BSE without the TDA:
 BSE|
 BSE|     Excitation n   Spin Config       TDA/ABBA   Excitation energy Ω^n (eV)
 BSE|                1       Singlet         -ABBA-                       2.7855
 BSE|                2       Singlet         -ABBA-                       3.1553
 BSE|                3       Singlet         -ABBA-                       3.2268
 BSE|                4       Singlet         -ABBA-                       4.5283
 BSE|                5       Singlet         -ABBA-                       4.6629
 BSE|                6       Singlet         -ABBA-                       4.7461
 BSE|                7       Singlet         -ABBA-                       4.7620
 BSE|                8       Singlet         -ABBA-                       5.0573
 BSE|                9       Singlet         -ABBA-                       5.2694
 BSE|               10       Singlet         -ABBA-                       5.3408
 BSE|               11       Singlet         -ABBA-                       5.4222
 BSE|               12       Singlet         -ABBA-                       5.7069
 BSE|               13       Singlet         -ABBA-                       6.4309
 BSE|               14       Singlet         -ABBA-                       6.4321
 BSE|               15       Singlet         -ABBA-                       6.5644
 BSE|               16       Singlet         -ABBA-                       6.5654
 BSE|               17       Singlet         -ABBA-                       6.6719
 BSE|               18       Singlet         -ABBA-                       6.8013
 BSE|               19       Singlet         -ABBA-                       6.8235
 BSE|               20       Singlet         -ABBA-                       6.8456
 BSE|               21       Singlet         -ABBA-                       6.8549
 BSE|               22       Singlet         -ABBA-                       6.8701
 BSE|               23       Singlet         -ABBA-                       6.8942
 BSE|               24       Singlet         -ABBA-                       7.0171
 BSE|               25       Singlet         -ABBA-                       7.1877
 BSE|
 BSE| Single-particle transitions are built up by (de-)excitations,
 BSE| which we denote by
 BSE|
 BSE|              =>        for excitations, i.e. entries of X_ia^n,
 BSE|              <=        for deexcitations, i.e. entries of Y_ia^n.
 BSE|
 BSE| The following single-particle transitions have significant contributions,
 BSE| i.e. |X_ia^n| > 0.100 or |Y_ia^n| > 0.100, respectively :
 BSE|         -- Quick reminder: HOMO i =   10 and LUMO a =   11 --
 BSE|
 BSE| Excitation n           i =>/<=     a      TDA/ABBA       |X_ia^n|/|Y_ia^n|
 BSE|
 BSE|            1           9    =>    11        -ABBA-                  0.6589
 BSE|            1           9    =>    14        -ABBA-                  0.1868
 BSE|            1           9    =>    23        -ABBA-                  0.1229
 BSE|
 BSE|            2           8    =>    11        -ABBA-                  0.6568
 BSE|            2           8    =>    14        -ABBA-                  0.1765
 BSE|
 BSE|            3          10    =>    11        -ABBA-                  0.6602
 BSE|            3          10    =>    14        -ABBA-                  0.1838
 BSE|            3          10    =>    23        -ABBA-                  0.1207
 BSE|
 BSE|            4           9    =>    12        -ABBA-                  0.6274
 BSE|            4           9    =>    17        -ABBA-                  0.1972
 BSE|            4           9    =>    21        -ABBA-                  0.2255
 BSE|            4           9    =>    26        -ABBA-                  0.1253
 BSE|
 BSE|            5           8    =>    12        -ABBA-                  0.6318
 BSE|            5           8    =>    17        -ABBA-                  0.1846
 BSE|            5           8    =>    21        -ABBA-                  0.2315
 BSE|            5           8    =>    26        -ABBA-                  0.1105
 BSE|
 BSE|            6           9    =>    13        -ABBA-                  0.5662
 BSE|            6           9    =>    18        -ABBA-                  0.1532
 BSE|            6           9    =>    22        -ABBA-                  0.1953
 BSE|            6          10    =>    12        -ABBA-                  0.2848
 BSE|            6          10    =>    17        -ABBA-                  0.1032
 BSE|            6          10    =>    21        -ABBA-                  0.1064
 BSE|
 BSE|            7           8    =>    13        -ABBA-                  0.6329
 BSE|            7           8    =>    18        -ABBA-                  0.1829
 BSE|            7           8    =>    22        -ABBA-                  0.2293
 BSE|            7           8    =>    27        -ABBA-                  0.1054
 BSE|
 BSE|            8          10    =>    13        -ABBA-                  0.6305
 BSE|            8          10    =>    18        -ABBA-                  0.1945
 BSE|            8          10    =>    22        -ABBA-                  0.2225
 BSE|            8          10    =>    27        -ABBA-                  0.1182
 BSE|
 BSE|            9           9    =>    11        -ABBA-                  0.1845
 BSE|            9           9    =>    14        -ABBA-                  0.5864
 BSE|            9           9    =>    19        -ABBA-                  0.1429
 BSE|            9           9    =>    20        -ABBA-                  0.2548
 BSE|            9           9    =>    23        -ABBA-                  0.1516
 BSE|            9           9    =>    28        -ABBA-                  0.1039
 BSE|
 BSE|           10           8    =>    14        -ABBA-                  0.5046
 BSE|           10           8    =>    19        -ABBA-                  0.1316
 BSE|           10           8    =>    20        -ABBA-                  0.2313
 BSE|           10           8    =>    23        -ABBA-                  0.1261
 BSE|           10           9    =>    13        -ABBA-                  0.1602
 BSE|           10          10    =>    12        -ABBA-                  0.3137
 BSE|           10          10    =>    21        -ABBA-                  0.1001
 BSE|
 BSE|           11           8    =>    11        -ABBA-                  0.1814
 BSE|           11           8    =>    14        -ABBA-                  0.3080
 BSE|           11           8    =>    23        -ABBA-                  0.1179
 BSE|           11           9    =>    13        -ABBA-                  0.2702
 BSE|           11          10    =>    12        -ABBA-                  0.4864
 BSE|           11          10    =>    21        -ABBA-                  0.1581
 BSE|
 BSE|           12          10    =>    11        -ABBA-                  0.1809
 BSE|           12          10    =>    14        -ABBA-                  0.5900
 BSE|           12          10    =>    19        -ABBA-                  0.1415
 BSE|           12          10    =>    20        -ABBA-                  0.2528
 BSE|           12          10    =>    23        -ABBA-                  0.1511
 BSE|           12          10    =>    28        -ABBA-                  0.1015
 BSE|
 BSE|           13           9    =>    15        -ABBA-                  0.6735
 BSE|           13           9    =>    24        -ABBA-                  0.2115
 BSE|
 BSE|           14           9    =>    16        -ABBA-                  0.6735
 BSE|           14           9    =>    25        -ABBA-                  0.2115
 BSE|
 BSE|           15           8    =>    15        -ABBA-                  0.6721
 BSE|           15           8    =>    24        -ABBA-                  0.2176
 BSE|
 BSE|           16           8    =>    16        -ABBA-                  0.6721
 BSE|           16           8    =>    25        -ABBA-                  0.2175
 BSE|
 BSE|           17           9    =>    12        -ABBA-                  0.1870
 BSE|           17           9    =>    17        -ABBA-                  0.6504
 BSE|           17           9    =>    21        -ABBA-                  0.1344
 BSE|           17           9    =>    26        -ABBA-                  0.1517
 BSE|
 BSE|           18           8    =>    12        -ABBA-                  0.1715
 BSE|           18           8    =>    17        -ABBA-                  0.6536
 BSE|           18           8    =>    21        -ABBA-                  0.1313
 BSE|           18           8    =>    26        -ABBA-                  0.1568
 BSE|
 BSE|           19           8    =>    19        -ABBA-                  0.1461
 BSE|           19           9    =>    13        -ABBA-                  0.1235
 BSE|           19           9    =>    18        -ABBA-                  0.6260
 BSE|           19           9    =>    22        -ABBA-                  0.1409
 BSE|           19           9    =>    27        -ABBA-                  0.1133
 BSE|           19          10    =>    17        -ABBA-                  0.1334
 BSE|
 BSE|           20           9    =>    14        -ABBA-                  0.1042
 BSE|           20           9    =>    19        -ABBA-                  0.4104
 BSE|           20          10    =>    15        -ABBA-                  0.5295
 BSE|           20          10    =>    24        -ABBA-                  0.1662
 BSE|
 BSE|           21          10    =>    16        -ABBA-                  0.6731
 BSE|           21          10    =>    25        -ABBA-                  0.2093
 BSE|
 BSE|           22           9    =>    14        -ABBA-                  0.1204
 BSE|           22           9    =>    19        -ABBA-                  0.5232
 BSE|           22           9    =>    28        -ABBA-                  0.1103
 BSE|           22          10    =>    15        -ABBA-                  0.4150
 BSE|           22          10    =>    24        -ABBA-                  0.1273
 BSE|
 BSE|           23           8    =>    13        -ABBA-                  0.1679
 BSE|           23           8    =>    18        -ABBA-                  0.6540
 BSE|           23           8    =>    22        -ABBA-                  0.1295
 BSE|           23           8    =>    27        -ABBA-                  0.1482
 BSE|
 BSE|           24           8    =>    14        -ABBA-                  0.1229
 BSE|           24           8    =>    19        -ABBA-                  0.6094
 BSE|           24           8    =>    28        -ABBA-                  0.1191
 BSE|           24          10    =>    17        -ABBA-                  0.2573
 BSE|
 BSE|           25          10    =>    13        -ABBA-                  0.1826
 BSE|           25          10    =>    18        -ABBA-                  0.6539
 BSE|           25          10    =>    22        -ABBA-                  0.1322
 BSE|           25          10    =>    27        -ABBA-                  0.1433
 BSE|
 BSE| Transition moments d_r^n (with r∈(x,y,z), in atomic units)
 BSE| and oscillator strength f^n of excitation level n are obtained from
 BSE|
 BSE|    d_r^n = sum_ia sqrt(2) < ψ_i | r | ψ_a > ( X_ia^n + Y_ia^n )
 BSE|
 BSE|        f^n = 2/3 * Ω^n sum_r∈(x,y,z) ( d_r^n )^2
 BSE|
 BSE| where we introduced
 BSE|
 BSE| ψ_i:   occupied molecular orbitals,
 BSE| ψ_a:   empty molecular orbitals and
 BSE|   r:   position operator.
 BSE|
 BSE| prelim Ref.: Eqs. (23), (24)
 BSE| in J. Chem. Phys. 152, 044105 (2020); https://doi.org/10.1063/1.5123290
 BSE|
 BSE| Optical properties from solving the BSE without the TDA:
 BSE|
 BSE|  Excitation n  TDA/ABBA        d_x^n     d_y^n     d_z^n Osc. strength f^n
 BSE|             1    -ABBA-        0.345     0.345    -0.000             0.016
 BSE|             2    -ABBA-        0.000    -0.000     0.874             0.059
 BSE|             3    -ABBA-        0.389    -0.389    -0.000             0.024
 BSE|             4    -ABBA-       -0.000     0.000    -0.000             0.000
 BSE|             5    -ABBA-        0.325    -0.325    -0.000             0.024
 BSE|             6    -ABBA-       -0.000    -0.000    -0.168             0.003
 BSE|             7    -ABBA-        0.310     0.310     0.000             0.022
 BSE|             8    -ABBA-        0.000    -0.000     0.000             0.000
 BSE|             9    -ABBA-        0.444     0.444    -0.000             0.051
 BSE|            10    -ABBA-       -0.000     0.000    -0.378             0.019
 BSE|            11    -ABBA-        0.000     0.000     0.527             0.037
 BSE|            12    -ABBA-       -0.485     0.485    -0.000             0.066
 BSE|            13    -ABBA-        0.246    -0.246     0.000             0.019
 BSE|            14    -ABBA-        0.246     0.246    -0.000             0.019
 BSE|            15    -ABBA-       -0.000     0.000    -0.000             0.000
 BSE|            16    -ABBA-        0.000     0.000    -0.016             0.000
 BSE|            17    -ABBA-        0.000    -0.000    -0.000             0.000
 BSE|            18    -ABBA-        0.087    -0.087    -0.000             0.003
 BSE|            19    -ABBA-       -0.000    -0.000     0.058             0.001
 BSE|            20    -ABBA-       -0.224    -0.224    -0.000             0.017
 BSE|            21    -ABBA-       -0.313     0.313     0.000             0.033
 BSE|            22    -ABBA-       -0.216    -0.216     0.000             0.016
 BSE|            23    -ABBA-       -0.106    -0.106     0.000             0.004
 BSE|            24    -ABBA-        0.000     0.000     0.276             0.013
 BSE|            25    -ABBA-       -0.000     0.000     0.000             0.000
 BSE|
 BSE| Check for Thomas-Reiche-Kuhn sum rule
 BSE|
 BSE|                              N_e = Σ_n f^n
 BSE|
 BSE| Number of electrons N_e:                                                20
 BSE| Sum over oscillator strengths Σ_n f^n :                             22.080
 BSE|
 BSE|
 BSE|
 BSE| The BSE was successfully calculated. Have a nice day!

  Total RI-RPA Time=                                                    2.649233


 ENERGY| Total FORCE_EVAL ( QS ) energy [hartree]           -237.203166342909583

 -------------------------------------------------------------------------------
 -                                                                             -
 -                                DBCSR STATISTICS                             -
 -                                                                             -
 -------------------------------------------------------------------------------
 COUNTER                                    TOTAL       BLAS       SMM       ACC
 flops    48 x    48 x    48               442368     100.0%      0.0%      0.0%     
 flops    48 x    56 x    48               516096     100.0%      0.0%      0.0%     
 flops    56 x    48 x    48               516096     100.0%      0.0%      0.0%     
 flops    48 x    48 x    56               516096     100.0%      0.0%      0.0%     
 flops    56 x    56 x    48               602112     100.0%      0.0%      0.0%     
 flops    48 x    56 x    56               602112     100.0%      0.0%      0.0%     
 flops    56 x    48 x    56               602112     100.0%      0.0%      0.0%     
 flops    56 x    56 x    56               702464     100.0%      0.0%      0.0%     
 flops     8 x     8 x    48               915456     100.0%      0.0%      0.0%     
 flops     8 x     8 x    56              1068032     100.0%      0.0%      0.0%     
 flops    10 x    10 x    48              1430400     100.0%      0.0%      0.0%     
 flops    10 x    10 x    56              1668800     100.0%      0.0%      0.0%     
 flops    48 x    48 x     8              2654208     100.0%      0.0%      0.0%     
 flops    56 x    48 x     8              3096576     100.0%      0.0%      0.0%     
 flops    56 x    56 x     8              3612672     100.0%      0.0%      0.0%     
 flops    10 x    30 x    48              4291200     100.0%      0.0%      0.0%     
 flops    10 x    30 x    56              5006400     100.0%      0.0%      0.0%     
 flops    48 x     8 x    48              5603328     100.0%      0.0%      0.0%     
 flops    56 x     8 x    48              6537216     100.0%      0.0%      0.0%     
 flops    48 x     8 x    56              6537216     100.0%      0.0%      0.0%     
 flops    56 x     8 x    56              7626752     100.0%      0.0%      0.0%     
 flops    10 x    32 x    48              9154560     100.0%      0.0%      0.0%     
 flops    10 x    32 x    56             10680320     100.0%      0.0%      0.0%     
 flops    32 x     8 x    48             10985472     100.0%      0.0%      0.0%     
 flops     8 x    32 x    48             10985472     100.0%      0.0%      0.0%     
 flops    32 x     8 x    56             12816384     100.0%      0.0%      0.0%     
 flops     8 x    32 x    56             12816384     100.0%      0.0%      0.0%     
 flops    30 x    30 x    48             12873600     100.0%      0.0%      0.0%     
 flops    48 x    10 x    48             13731840     100.0%      0.0%      0.0%     
 flops    30 x    30 x    56             15019200     100.0%      0.0%      0.0%     
 flops    56 x    10 x    48             16020480     100.0%      0.0%      0.0%     
 flops    48 x    10 x    56             16020480     100.0%      0.0%      0.0%     
 flops    56 x    10 x    56             18690560     100.0%      0.0%      0.0%     
 flops    48 x    30 x    48             20597760     100.0%      0.0%      0.0%     
 flops    56 x    30 x    48             24030720     100.0%      0.0%      0.0%     
 flops    48 x    30 x    56             24030720     100.0%      0.0%      0.0%     
 flops    32 x    30 x    48             27463680     100.0%      0.0%      0.0%     
 flops    30 x    32 x    48             27463680     100.0%      0.0%      0.0%     
 flops    56 x    30 x    56             28035840     100.0%      0.0%      0.0%     
 flops    48 x    48 x    32             31850496     100.0%      0.0%      0.0%     
 flops    32 x    30 x    56             32040960     100.0%      0.0%      0.0%     
 flops    30 x    32 x    56             32040960     100.0%      0.0%      0.0%     
 flops    56 x    48 x    32             37158912     100.0%      0.0%      0.0%     
 flops    56 x    56 x    32             43352064     100.0%      0.0%      0.0%     
 flops    48 x    32 x    48            111181824     100.0%      0.0%      0.0%     
 flops    56 x    32 x    48            129712128     100.0%      0.0%      0.0%     
 flops    48 x    32 x    56            129712128     100.0%      0.0%      0.0%     
 flops    56 x    32 x    56            151330816     100.0%      0.0%      0.0%     
 flops    32 x    32 x    48            190414848     100.0%      0.0%      0.0%     
 flops    32 x    32 x    56            222150656     100.0%      0.0%      0.0%     
 flops inhomo. stacks                           0       0.0%      0.0%      0.0%
 flops total                         1.476911E+09     100.0%      0.0%      0.0%
 flops max/rank                    105.972672E+06     100.0%      0.0%      0.0%
 matmuls inhomo. stacks                         0       0.0%      0.0%      0.0%
 matmuls total                              14934     100.0%      0.0%      0.0%
 number of processed stacks                  9570     100.0%      0.0%      0.0%
 average stack size                                     1.6       0.0       0.0
 marketing flops                     1.370761E+09
 -------------------------------------------------------------------------------
 # multiplications                            101
 max memory usage/rank               2.251633E+09
 # max total images/rank                        3
 # max 3D layers                                1
 # MPI messages exchanged                   73920
 MPI messages size (bytes):
  total size                        93.277184E+06
  min size                           0.000000E+00
  max size                          46.592000E+03
  average size                       1.261867E+03
 MPI breakdown and total messages size (bytes):
             size <=      128               68818                        0
       128 < size <=     8192                1242                  6769152
      8192 < size <=    32768                3750                 81748992
     32768 < size <=   131072                 110                  4759040
    131072 < size <=  4194304                   0                        0
   4194304 < size <= 16777216                   0                        0
  16777216 < size                               0                        0
 -------------------------------------------------------------------------------

 *** WARNING in dbcsr_mm.F:301 :: Using a non-square number of MPI ranks ***
 *** might lead to poor performance. Used ranks: 48 Suggested: 49 100    ***

 -------------------------------------------------------------------------------
 -                                                                             -
 -                      DBCSR MESSAGE PASSING PERFORMANCE                      -
 -                                                                             -
 -------------------------------------------------------------------------------
 ROUTINE             CALLS      AVE VOLUME [Bytes]
 MP_Bcast               51                     12.
 MP_Allreduce          665                     12.
 MP_Alltoall          2388                  14461.
 MP_ISend             3630                   3149.
 MP_IRecv             3774                   1928.
 -------------------------------------------------------------------------------

 -------------------------------------------------------------------------------
 -                                                                             -
 -                                DBM STATISTICS                               -
 -                                                                             -
 -------------------------------------------------------------------------------
    M  x    N  x    K                                          COUNT     PERCENT
    ?  x    ?  x    ?                                        3250944      52.93%
   ??  x    ?  x    ?                                        2891520      47.07%
 -------------------------------------------------------------------------------

 -------------------------------------------------------------------------------
 -                                                                             -
 -                                GRID STATISTICS                              -
 -                                                                             -
 -------------------------------------------------------------------------------
 LP    KERNEL             BACKEND                              COUNT     PERCENT
 2     collocate general  CPU                                   7008      21.21%
 2     integrate general  CPU                                   7008      21.21%
 6     collocate ortho    CPU                                   2628       7.95%
 6     integrate ortho    CPU                                   2628       7.95%
 7     collocate ortho    CPU                                   2190       6.63%
 7     integrate ortho    CPU                                   2190       6.63%
 8     collocate ortho    CPU                                   1825       5.52%
 8     integrate ortho    CPU                                   1825       5.52%
 4     collocate ortho    CPU                                   1752       5.30%
 4     integrate ortho    CPU                                   1752       5.30%
 5     collocate ortho    CPU                                    730       2.21%
 5     integrate ortho    CPU                                    730       2.21%
 2     collocate ortho    CPU                                    292       0.88%
 2     integrate ortho    CPU                                    292       0.88%
 0     collocate general  CPU                                     96       0.29%
 0     integrate general  CPU                                     96       0.29%
 -------------------------------------------------------------------------------

 MEMORY| Estimated peak process memory [MiB]                                2431

 -------------------------------------------------------------------------------
 ----                             MULTIGRID INFO                            ----
 -------------------------------------------------------------------------------
 count for grid        1:        5329742          cutoff [a.u.]          250.00
 count for grid        2:        1276067          cutoff [a.u.]           83.33
 count for grid        3:         940818          cutoff [a.u.]           27.78
 count for grid        4:         648398          cutoff [a.u.]            9.26
 total gridlevel count  :        8195025

 -------------------------------------------------------------------------------
 -                                                                             -
 -                         MESSAGE PASSING PERFORMANCE                         -
 -                                                                             -
 -------------------------------------------------------------------------------

 ROUTINE             CALLS      AVE VOLUME [Bytes]
 MP_Group              292
 MP_Bcast              898                 843809.
 MP_Allreduce         8853                  20317.
 MP_Sync               803
 MP_Alltoall          2016               53901221.
 MP_SendRecv          6965                 265942.
 MP_ISendRecv        13818                 153892.
 MP_Wait             25381
 MP_comm_split         126
 MP_ISend            10580                1762164.
 MP_IRecv            10627                1754376.
 -------------------------------------------------------------------------------


 -------------------------------------------------------------------------------
 -                                                                             -
 -                           R E F E R E N C E S                               -
 -                                                                             -
 -------------------------------------------------------------------------------
 
 CP2K version 2025.1 (Development Version), the CP2K developers group (2025).
 CP2K is freely available from https://www.cp2k.org/ .
 
 T. D. Kuehne, M. Iannuzzi, M. Del Ben, V. V. Rybkin, P. Seewald, F. Stein, T. 
 Laino, R. Z. Khaliullin, O. Schuett, F. Schiffmann, D. Golze, J. Wilhelm, S. 
 Chulkov, M. H. Bani-Hashemian, V. Weber, U. Borstnik, M. Taillefumier, A. S. 
 Jakobovits, A. Lazzaro, H. Pabst, T. Mueller, R. Schade, M. Guidon, S. 
 Andermatt, N. Holmberg, G. K. Schenter, A. Hehn, A. Bussy, F. Belleflamme, G. 
 Tabacchi, A. Gloess, M. Lass, I. Bethune, C. J. Mundy, C. Plessl, M. Watkins, 
 J. VandeVondele, M. Krack, J. Hutter.
 J. Chem. Phys. 152, 194103 (2020).
 CP2K: An electronic structure and molecular dynamics software package - 
 Quickstep: Efficient and accurate electronic structure calculations.
 https://doi.org/10.1063/5.0007045

 J. Wilhelm, D. Golze, L. Talirz, J. Hutter, C. A. Pignedoli.
 J. Phys. Chem. Lett. 9, 306-312 (2018).
 Toward GW calculations on thousands of atoms.
 https://doi.org/10.1021/acs.jpclett.7b02740

 J. Wilhelm, J. Hutter.
 Phys. Rev. B 95, 235123 (2017).
 Periodic GW calculations in the Gaussian and plane-waves scheme.
 https://doi.org/10.1103/PhysRevB.95.235123

 O. Schuett, P. Messmer, J. Hutter, J. VandeVondele.
 Electronic Structure Calculations on Graphics Processing Units, 173-190 (2016).
 GPU-Accelerated Sparse Matrix-Matrix Multiplication for Linear Scaling Density 
 Functional Theory.
 https://doi.org/10.1002/9781118670712.ch8

 J. Wilhelm, M. Del Ben, J. Hutter.
 J. Chem. Theory Comput. 12, 3623-3635 (2016).
 GW in the Gaussian and plane waves scheme with application to linear acenes.
 https://doi.org/10.1021/acs.jctc.6b00380

 M. Del Ben, O. Schuett, T. Wentz, P. Messmer, J. Hutter, J. VandeVondele.
 Comput. Phys. Commun. 187, 120-129 (2015).
 Enabling simulation at the fifth rung of DFT: Large scale RPA calculations with 
 excellent time to solution.
 https://doi.org/10.1016/j.cpc.2014.10.021

 J. Hutter, M. Iannuzzi, F. Schiffmann, J. VandeVondele.
 WIREs Comput Mol Sci. 4, 15-25 (2014).
 CP2K: atomistic simulations of condensed matter systems.
 https://doi.org/10.1002/wcms.1159

 U. Borstnik, J. VandeVondele, V. Weber, J. Hutter.
 Parallel Comput. 40, 47-58 (2014).
 Sparse matrix multiplication: The distributed block-compressed sparse row 
 library.
 https://doi.org/10.1016/j.parco.2014.03.012

 M. Del Ben, J. Hutter, J. VandeVondele.
 J. Chem. Theory Comput. 9, 2654-2671 (2013).
 Electron Correlation in the Condensed Phase from a Resolution of Identity 
 Approach Based on the Gaussian and Plane Waves Scheme.
 https://doi.org/10.1021/ct4002202

 M. Del Ben, J. Hutter, J. VandeVondele.
 J. Chem. Theory Comput. 8, 4177-4188 (2012).
 Second-Order Moller-Plesset Perturbation Theory in the Condensed Phase: An 
 Efficient and Massively Parallel Gaussian and Plane Waves Approach.
 https://doi.org/10.1021/ct300531w

 M. Guidon, J. Hutter, J. VandeVondele.
 J. Chem. Theory Comput. 5, 3010-3021 (2009).
 Robust Periodic Hartree-Fock Exchange for Large-Scale Simulations Using 
 Gaussian Basis Sets.
 https://doi.org/10.1021/ct900494g

 M. Guidon, F. Schiffmann, J. Hutter, J. VandeVondele.
 J. Chem. Phys. 128, 214104 (2008).
 Ab initio molecular dynamics using hybrid density functionals.
 https://doi.org/10.1063/1.2931945

 L. Genovese, T. Deutsch, S. Goedecker.
 J. Chem. Phys. 127, 054704 (2007).
 Efficient and accurate three-dimensional Poisson solver for surface problems.
 https://doi.org/10.1063/1.2754685

 J. VandeVondele, J. Hutter.
 J. Chem. Phys. 127, 114105 (2007).
 Gaussian basis sets for accurate calculations on molecular systems in gas and 
 condensed phases.
 https://doi.org/10.1063/1.2770708

 L. Genovese, T. Deutsch, A. Neelov, S. Goedecker, G. Beylkin.
 J. Chem. Phys. 125, 074105 (2006).
 Efficient solution of Poisson's equation with free boundary conditions.
 https://doi.org/10.1063/1.2335442

 M. Frigo, S. G. Johnson.
 Proc. IEEE 93, 216-231 (2005).
 The design and implementation of FFTW3.
 https://doi.org/10.1109/JPROC.2004.840301

 M. Krack, M. Parrinello.
 Phys. Chem. Chem. Phys. 2, 2105-2112 (2000).
 All-electron ab-initio molecular dynamics.
 https://doi.org/10.1039/b001167n

 G. Lippert, J. Hutter, M. Parrinello.
 Theor. Chem. Acc. 103, 124-140 (1999).
 The Gaussian and augmented-plane-wave density functional method for ab initio 
 molecular dynamics simulations.
 https://doi.org/10.1007/s002140050523

 J. P. Perdew, K. Burke, M. Ernzerhof.
 Phys. Rev. Lett. 77, 3865-3868 (1996).
 Generalized gradient approximation made simple.
 https://doi.org/10.1103/PhysRevLett.77.3865


 -------------------------------------------------------------------------------
 -                                                                             -
 -                                T I M I N G                                  -
 -                                                                             -
 -------------------------------------------------------------------------------
 SUBROUTINE                       CALLS  ASD         SELF TIME        TOTAL TIME
                                MAXIMUM       AVERAGE  MAXIMUM  AVERAGE  MAXIMUM
 CP2K                                 1  1.0    0.040    0.065  790.657  790.657
 qs_energies                          1  2.0    0.001    0.001  789.662  789.893
 scf_env_do_scf                       1  3.0    0.000    0.000  784.160  784.161
 scf_env_do_scf_inner_loop           72  4.0    0.002    0.004  784.160  784.161
 qs_ks_build_kohn_sham_matrix        73  7.0    0.011    0.013  732.176  732.223
 qs_ks_update_qs_env                 72  5.0    0.000    0.001  730.399  730.446
 rebuild_ks_matrix                   72  6.0    0.000    0.000  730.392  730.439
 hfx_ks_matrix                       73  8.0    0.003    0.004  542.668  542.716
 integrate_four_center               73  9.0    4.465    6.252  542.664  542.711
 integrate_four_center_main          73 10.0    7.210  278.659   12.465  467.082
 mp_sync                            803  9.5  453.350  466.964  453.350  466.964
 integrate_four_center_bin         5778 11.0    5.255  188.423    5.255  188.423
 fft_wrap_pw1pw2                   1524  9.9    0.034    0.045   86.690   87.593
 fft_wrap_pw1pw2_250               1086 11.1    3.727    4.104   83.881   84.776
 calc_screening_functions             1 10.0   66.222   70.819   66.701   71.301
 fft3d_ps                          1524 11.9   34.171   37.518   69.876   70.784
 pw_poisson_solve                    73  8.0    1.299    1.441   63.085   63.107
 qs_vxc_create                       73  8.0    0.001    0.001   51.808   51.808
 xc_vxc_pw_create                    72  9.0    0.900    1.003   51.807   51.807
 ps_wavelet_solve                    73  9.0   32.788   36.976   41.853   42.122
 xc_pw_derive                       432 11.0    0.005    0.006   37.737   38.766
 mp_alltoall_d54                     73 10.0    5.928   32.544    5.928   32.544
 mp_alltoall_z22v                  1524 13.9   27.435   30.898   27.435   30.898
 prepare_gapw_den                    73  8.0    0.002    0.002   30.377   30.541
 qs_rho_update_rho_low               73  5.0    0.001    0.001   27.999   28.001
 calculate_rho_elec                  73  6.0    0.714    0.761   27.779   27.779
 xc_pw_divergence                    72 10.0    0.003    0.003   25.684   26.386
 xc_rho_set_and_dset_create          72 10.0    0.649    0.841   24.711   25.878
 gspace_mixing                       71  5.0    0.694    0.740   25.224   25.225
 density_rs2pw                       73  7.0    0.005    0.006   19.292   19.826
 x_to_yz                            797 13.1    5.823    6.409   18.798   19.692
 yz_to_x                            727 12.8    2.422    2.946   16.882   19.388
 calculate_rho_atom                 146  9.0    1.374   19.150    1.374   19.150
 mp_sum_d                          1839  6.3   17.855   19.145   17.855   19.145
 broyden_mixing                      71  6.0   18.666   18.982   19.001   19.125
 mp_sum_dv                         3568 11.6   17.903   18.342   17.903   18.342
 sum_up_and_integrate                73  8.0    0.001    0.001   15.987   16.073
 integrate_v_rspace                  73  9.0    0.002    0.002   15.800   15.961
 calculate_vxc_atom                  73  8.0    0.030    0.521   15.023   15.024
 potential_pw2rs                     73 10.0    0.037    0.040   14.699   14.849
 gaVxcgb_GC                         144  9.0    0.300   14.404    0.300   14.404
 transfer_pw2rs                     366 10.6    0.005    0.007   11.077   11.293
 put_rho0_on_grid                    73  9.0    0.719    0.778   10.849   11.012
 transfer_rs2pw                     366  8.4    0.009    0.012    9.734   10.114
 mp_waitany                        9680 11.5    8.752    9.915    8.752    9.915
 grid_collocate_task_list            73  7.0    7.471    7.982    7.471    7.982
 transfer_pw2rs_250                 147 11.0    2.320    2.520    7.292    7.805
 transfer_rs2pw_250                 147 10.0    2.642    2.865    6.774    7.158
 mp_alltoall_d11v                  1336  9.4    3.767    7.091    3.767    7.091
 xc_functional_eval                 360 10.9    0.001    0.002    5.286    6.202
 pbe_lda_eval                       360 11.9    5.286    6.200    5.286    6.200
 mp_sum_l                           947  6.1    4.629    6.020    4.629    6.020
 integrate_four_center_load          73 10.0    0.000    0.001    4.609    5.999
 hfx_load_balance                     1 11.0    0.000    0.000    4.609    5.999
 hfx_load_balance_range               1 12.0    0.000    0.000    4.605    5.995
 mp_alltoall_d45                     74 10.0    2.879    5.820    2.879    5.820
 pw_scatter_p                       797 12.1    5.696    5.761    5.696    5.761
 pw_gather_p                        727 11.8    4.782    5.449    4.782    5.449
 integrate_vhg0_rspace               73  8.0    0.145    0.220    5.051    5.076
 mp2_main                             1  3.0    0.000    0.000    4.632    4.863
 pw_derive                          651 11.3    4.222    4.488    4.222    4.488
 cp2k_distribution_to_z_slices       73  9.0    1.351    1.402    2.531    2.698
 mp2_gpw_main                         1  4.0    0.000    0.000    2.641    2.651
 pw_copy                           1090 10.6    2.465    2.636    2.465    2.636
 fft_wrap_pw1pw2_90                 146 10.5    0.108    0.153    2.250    2.555
 pw_poisson_set                      74  8.9    0.003    0.003    2.320    2.342
 rs_grid_zero                       367 11.2    2.203    2.251    2.203    2.251
 transfer_pw2rs_90                   73 12.0    0.435    0.512    1.728    2.229
 mp_waitall_1                     22530 12.0    1.212    2.019    1.212    2.019
 Vh_1c_gg_integrals                  73  8.0    0.043    1.675    1.838    1.999
 rpa_ri_compute_en                    1  5.0    0.000    0.000    1.983    1.983
 rpa_num_int                          1  6.0    0.001    0.001    1.972    1.972
 compute_vec_Sigma_x_minus_vxc_       1  4.0    0.000    0.000    1.788    1.788
 pw_axpy                            725  9.3    1.597    1.728    1.597    1.728
 transfer_pw2rs_30                   73 12.0    0.994    1.086    1.532    1.690
 pw_copy_to_array                   727 11.8    1.469    1.644    1.469    1.644
 compute_GW_self_energy             100  7.0    0.001    0.001    1.493    1.525
 transfer_rs2pw_90                   73  9.0    0.401    0.453    1.418    1.504
 compute_GW_self_energy_deep        100  8.0    1.064    1.097    1.421    1.453
 mp_sum_dm                          515  7.6    0.920    1.448    0.920    1.448
 pw_integral_ab_c1d_c1d_gs           73  9.0    1.071    1.080    1.185    1.290
 pw_copy_from_array                 797 12.1    0.977    1.213    0.977    1.213
 transfer_rs2pw_30                   73  9.0    0.570    0.598    1.168    1.192
 pw_poisson_rebuild                  73  9.0    0.000    0.000    1.098    1.123
 ps_wavelet_create                    1 10.0    0.000    0.000    1.098    1.123
 RS_z_slice_distribution              1 11.0    0.992    1.030    1.098    1.123
 rs_gather_matrices                  73 10.0    0.001    0.015    0.971    1.102
 grid_integrate_task_list            73 10.0    0.129    1.079    0.129    1.079
 qs_scf_new_mos                      72  5.0    0.001    0.001    0.977    0.984
 powell_optimize                 345274 11.0    0.865    0.912    0.865    0.912
 calc_pair_dist_radii                 1 10.0    0.493    0.517    0.879    0.903
 mp_sendrecv_dv                    6862 10.0    0.845    0.892    0.845    0.892
 cp_fm_syevd                         78  7.0    0.001    0.001    0.872    0.874
 cp_fm_redistribute_end              78  8.0    0.425    0.817    0.427    0.818
 mp_irecv_dm3                      2640 11.5    0.382    0.795    0.382    0.795
 mp_isend_dv                       9259 11.7    0.495    0.785    0.495    0.785
 cp_fm_syevd_base                    78  8.0    0.389    0.780    0.389    0.780
 pw_zero                            434 10.3    0.700    0.773    0.700    0.773
 eigensolver_symm                    73  6.0    0.002    0.002    0.669    0.670
 mp2_ri_gpw_compute_in                1  5.0    0.000    0.000    0.641    0.641
 mp2_ri_gpw_compute_in_loop           1  6.0    0.000    0.000    0.636    0.636
 init_scf_run                         1  3.0    0.000    0.000    0.633    0.633
 scf_env_initial_rho_setup            1  4.0    0.000    0.000    0.619    0.620
 contract_B_L                         4  7.0    0.001    0.002    0.442    0.609
 transfer_pw2rs_10                   73 12.0    0.250    0.264    0.520    0.571
 mp_isend_dm3                      2640 11.5    0.292    0.558    0.292    0.558
 mp_cart_create                     393 10.3    0.376    0.543    0.377    0.544
 dbt_pgrid_create_expert             84 10.8    0.000    0.000    0.360    0.527
 mp2_eri_3c_integrate                 1  7.0    0.000    0.000    0.177    0.525
 integrate_set_3c                    54  8.0    0.165    0.496    0.177    0.525
 mp_isendrecv_dv                  13724 12.0    0.253    0.508    0.253    0.508
 qs_init_subsys                       1  2.0    0.007    0.011    0.484    0.485
 parallel_gemm_fm                   364  8.5    0.001    0.001    0.466    0.475
 parallel_gemm_fm_gemm              364  9.5    0.001    0.001    0.466    0.475
 cp_fm_gemm                         364 10.5    0.465    0.474    0.465    0.474
 qs_env_setup                         1  3.0    0.000    0.000    0.448    0.455
 qs_env_rebuild_pw_env                2  3.5    0.000    0.000    0.446    0.454
 pw_env_rebuild                       1  5.0    0.001    0.001    0.446    0.453
 fft_wrap_pw1pw2_30                 146 10.5    0.017    0.020    0.423    0.442
 pw_grid_setup                        4  6.0    0.000    0.000    0.417    0.425
 pw_grid_setup_internal               4  7.0    0.010    0.013    0.417    0.425
 mp_sum_i                            19  9.5    0.232    0.403    0.232    0.403
 restraint_control                    1  2.0    0.000    0.000    0.231    0.402
 mp2_main_alloc_hfx                   1  4.0    0.171    0.402    0.171    0.402
 scale_and_distribute               146 10.0    0.364    0.393    0.364    0.393
 integrate_four_center_getP          73 10.0    0.007    0.008    0.302    0.392
 transfer_rs2pw_10                   73  9.0    0.118    0.128    0.365    0.373
 calculate_rho0_atom                146  9.0    0.331    0.373    0.331    0.373
 mp_max_i                           584  2.9    0.250    0.366    0.250    0.366
 pw_grid_sort                         4  8.0    0.223    0.226    0.318    0.322
 start_bse_calculation                1  7.0    0.000    0.000    0.298    0.298
 pw_scale                           289  9.5    0.189    0.229    0.189    0.229
 calculate_rho_atom_coeff            73  6.0    0.035    0.071    0.220    0.221
 update_ks_atom                      73  8.0    0.022    0.069    0.136    0.203
 calculate_dm_sparse                 72  6.0    0.000    0.001    0.181    0.186
 cp_dbcsr_plus_fm_fm_t               72  7.0    0.001    0.001    0.180    0.185
 create_qs_kind_set                   1  2.0    0.000    0.000    0.178    0.180
 read_qs_kind                         2  3.0    0.084    0.092    0.178    0.180
 mp_bcast_dm                        292  9.0    0.114    0.163    0.114    0.163
 mixing_init                          1  5.0    0.145    0.149    0.149    0.149
 cp_fm_power                          2  7.5    0.002    0.002    0.144    0.144
 copy_dbcsr_to_fm                    99  6.4    0.002    0.002    0.135    0.142
 rpa_num_int_RPA_matrix_operati     100  7.0    0.001    0.002    0.142    0.142
 dbcsr_multiply_generic             109  8.1    0.005    0.005    0.134    0.141
 diagonalize_C                        1  8.0    0.000    0.000    0.140    0.141
 create_hermitian_form_of_ABBA        1  8.0    0.000    0.000    0.137    0.137
 integrate_four_center_dist_KS       73 10.0    0.007    0.008    0.133    0.135
 scf_post_calculation_gpw             1  3.0    0.000    0.000    0.125    0.125
 write_available_results              1  4.0    0.000    0.000    0.125    0.125
 write_mo_free_results                1  5.0    0.013    0.018    0.125    0.125
 fft_wrap_pw1pw2_10                 146 10.5    0.004    0.004    0.102    0.121
 dbcsr_complete_redistribute        247  8.4    0.010    0.015    0.111    0.113
 qs_energies_init_hamiltonians        1  3.0    0.000    0.000    0.111    0.111
 xc_pw_smooth                        72 10.0    0.000    0.000    0.077    0.107
 build_core_hamiltonian_matrix        1  4.0    0.000    0.000    0.106    0.106
 overlap_condnum                      1  5.0    0.000    0.000    0.102    0.104
 sort_shells                          4  9.0    0.095    0.097    0.095    0.097
 parser_read_line                 17005  4.0    0.006    0.006    0.093    0.096
 dbcsr_desymmetrize_deep            101  7.4    0.002    0.003    0.086    0.093
 calc_mat_Q                         100  8.0    0.000    0.000    0.087    0.091
 parser_read_line_low                23  5.0    0.008    0.038    0.087    0.090
 contract_S_to_Q                    100  9.0    0.000    0.000    0.086    0.090
 vxc_of_r_new                       288  9.0    0.000    0.014    0.002    0.089
 broadcast_input_information         23  6.0    0.020    0.024    0.079    0.085
 -------------------------------------------------------------------------------

 The number of warnings for this run is : 1
 
 -------------------------------------------------------------------------------
  **** **** ******  **  PROGRAM ENDED AT                 2025-03-26 05:41:53.797
 ***** ** ***  *** **   PROGRAM RAN ON                              i05r08c03s06
 **    ****   ******    PROGRAM RAN BY                                   di38fab
 ***** **    ** ** **   PROGRAM PROCESS ID                               3657494
  **** **  *******  **  PROGRAM STOPPED IN /hppfs/scratch/04/di38fab/05_MOL/W4-1
                                           1+ALK/nao/TZVP/GW+BSE/1e-4
