 DBCSR| CPU Multiplication driver                                           BLAS (U)
 DBCSR| Multrec recursion limit                                              512 (U)
 DBCSR| Multiplication stack size                                           1000 (D)
 DBCSR| Maximum elements for images                                    UNLIMITED (U)
 DBCSR| Multiplicative factor virtual images                                   1 (U)
 DBCSR| Use multiplication densification                                       T (D)
 DBCSR| Multiplication size stacks                                             3 (U)
 DBCSR| Use memory pool for CPU allocation                                     F (U)
 DBCSR| Number of 3D layers                                               SINGLE (U)
 DBCSR| Use MPI memory allocation                                              F (U)
 DBCSR| Use RMA algorithm                                                      F (U)
 DBCSR| Use Communication thread                                               T (U)
 DBCSR| Communication thread load                                             75 (D)
 DBCSR| MPI: My process id                                                     0
 DBCSR| MPI: Number of processes                                              48
 DBCSR| OMP: Current number of threads                                         4
 DBCSR| OMP: Max number of threads                                             4
 DBCSR| Split modifier for TAS multiplication algorithm                  1.0E+00 (U)


  **** **** ******  **  PROGRAM STARTED AT               2025-03-26 05:56:18.640
 ***** ** ***  *** **   PROGRAM STARTED ON                          i05r08c01s04
 **    ****   ******    PROGRAM STARTED BY                               di38fab
 ***** **    ** ** **   PROGRAM PROCESS ID                               3593914
  **** **  *******  **  PROGRAM STARTED IN /hppfs/scratch/04/di38fab/05_MOL/W4-1
                                           1+ALK/co2/SZV/GW+BSE/1e-4

 CP2K| version string:                 CP2K version 2025.1 (Development Version)
 CP2K| source code revision number:                                  git:d2e611a
 CP2K| cp2kflags: omp libint fftw3 libxc parallel scalapack max_contr=4         
 CP2K| is freely available from                            https://www.cp2k.org/
 CP2K| Program compiled at                       Thu 06 Mar 2025 05:09:20 PM CET
 CP2K| Program compiled on                                               login02
 CP2K| Program compiled for                                        Supermuc-foss
 CP2K| Data directory path                  /hppfs/work/pn36zo/di38fab/cp2k/data
 CP2K| Input file name                                                    GW.inp

 GLOBAL| Force Environment number                                              1
 GLOBAL| Basis set file name            /hppfs/scratch/04/di38fab/04_TMD/BASIS_A
 GLOBAL| Potential file name            /hppfs/work/pn36zo/di38fab/cp2k/data/ALL
 GLOBAL| MM Potential file name                                     MM_POTENTIAL
 GLOBAL| Coordinate file name                                      __STD_INPUT__
 GLOBAL| Method name                                                        CP2K
 GLOBAL| Project name                                                       MoS2
 GLOBAL| Run type                                                         ENERGY
 GLOBAL| FFT library                                                       FFTW3
 GLOBAL| Diagonalization library                                       ScaLAPACK
 GLOBAL| DGEMM library                                                      BLAS
 GLOBAL| Orthonormality check for eigenvectors                          DISABLED
 GLOBAL| Matrix multiplication library                                 ScaLAPACK
 GLOBAL| All-to-all communication in single precision                          F
 GLOBAL| FFTs using library dependent lengths                                  F
 GLOBAL| Grid backend                                                       AUTO
 GLOBAL| Global print level                                               MEDIUM
 GLOBAL| MPI I/O enabled                                                       T
 GLOBAL| Total number of message passing processes                            48
 GLOBAL| Number of threads for this process                                    4
 GLOBAL| This output is from process                                           0
 GLOBAL| OpenMP stack size per thread (OMP_STACKSIZE)                    default
 GLOBAL| CPU model name             Intel(R) Xeon(R) Platinum 8174 CPU @ 3.10GHz

 MEMORY| system memory details [Kb]
 MEMORY|                        rank 0           min           max       average
 MEMORY| MemTotal             98436664      98436660      98436664      98436663
 MEMORY| MemFree              83897020      83795708      84167184      83914927
 MEMORY| Buffers                     0             0             0             0
 MEMORY| Cached                2396676       2395468       2414032       2400986
 MEMORY| Slab                  1240140       1233208       1247416       1240633
 MEMORY| SReclaimable           273000        266296        281136        273481
 MEMORY| MemLikelyFree        86566696      86476400      86831248      86589394


 *** Fundamental physical constants (SI units) ***

 *** Literature: B. J. Mohr and B. N. Taylor,
 ***             CODATA recommended values of the fundamental physical
 ***             constants: 2006, Web Version 5.1
 ***             http://physics.nist.gov/constants

 Speed of light in vacuum [m/s]                             2.99792458000000E+08
 Magnetic constant or permeability of vacuum [N/A**2]       1.25663706143592E-06
 Electric constant or permittivity of vacuum [F/m]          8.85418781762039E-12
 Planck constant (h) [J*s]                                  6.62606896000000E-34
 Planck constant (h-bar) [J*s]                              1.05457162825177E-34
 Elementary charge [C]                                      1.60217648700000E-19
 Electron mass [kg]                                         9.10938215000000E-31
 Electron g factor [ ]                                     -2.00231930436220E+00
 Proton mass [kg]                                           1.67262163700000E-27
 Fine-structure constant                                    7.29735253760000E-03
 Rydberg constant [1/m]                                     1.09737315685270E+07
 Avogadro constant [1/mol]                                  6.02214179000000E+23
 Boltzmann constant [J/K]                                   1.38065040000000E-23
 Atomic mass unit [kg]                                      1.66053878200000E-27
 Bohr radius [m]                                            5.29177208590000E-11

 *** Conversion factors ***

 [u] -> [a.u.]                                              1.82288848426455E+03
 [Angstrom] -> [Bohr] = [a.u.]                              1.88972613288564E+00
 [a.u.] = [Bohr] -> [Angstrom]                              5.29177208590000E-01
 [a.u.] -> [s]                                              2.41888432650478E-17
 [a.u.] -> [fs]                                             2.41888432650478E-02
 [a.u.] -> [J]                                              4.35974393937059E-18
 [a.u.] -> [N]                                              8.23872205491840E-08
 [a.u.] -> [K]                                              3.15774647902944E+05
 [a.u.] -> [kJ/mol]                                         2.62549961709828E+03
 [a.u.] -> [kcal/mol]                                       6.27509468713739E+02
 [a.u.] -> [Pa]                                             2.94210107994716E+13
 [a.u.] -> [bar]                                            2.94210107994716E+08
 [a.u.] -> [atm]                                            2.90362800883016E+08
 [a.u.] -> [eV]                                             2.72113838565563E+01
 [a.u.] -> [Hz]                                             6.57968392072181E+15
 [a.u.] -> [1/cm] (wave numbers)                            2.19474631370540E+05
 [a.u./Bohr**2] -> [1/cm]                                   5.14048714338585E+03
 

 CELL_TOP| Volume [angstrom^3]:                                     27000.000000
 CELL_TOP| Vector a [angstrom    30.000     0.000     0.000   |a| =    30.000000
 CELL_TOP| Vector b [angstrom     0.000    30.000     0.000   |b| =    30.000000
 CELL_TOP| Vector c [angstrom     0.000     0.000    30.000   |c| =    30.000000
 CELL_TOP| Angle (b,c), alpha [degree]:                                90.000000
 CELL_TOP| Angle (a,c), beta  [degree]:                                90.000000
 CELL_TOP| Angle (a,b), gamma [degree]:                                90.000000
 CELL_TOP| Numerically orthorhombic:                                         YES
 CELL_TOP| Periodicity                                                      NONE

 GENERATE|  Preliminary Number of Bonds generated:                             0
 GENERATE|  Achieved consistency in connectivity generation.

 CELL| Volume [angstrom^3]:                                         27000.000000
 CELL| Vector a [angstrom]:      30.000     0.000     0.000   |a| =    30.000000
 CELL| Vector b [angstrom]:       0.000    30.000     0.000   |b| =    30.000000
 CELL| Vector c [angstrom]:       0.000     0.000    30.000   |c| =    30.000000
 CELL| Angle (b,c), alpha [degree]:                                    90.000000
 CELL| Angle (a,c), beta  [degree]:                                    90.000000
 CELL| Angle (a,b), gamma [degree]:                                    90.000000
 CELL| Numerically orthorhombic:                                             YES
 CELL| Periodicity                                                          NONE

 CELL_REF| Volume [angstrom^3]:                                     27000.000000
 CELL_REF| Vector a [angstrom    30.000     0.000     0.000   |a| =    30.000000
 CELL_REF| Vector b [angstrom     0.000    30.000     0.000   |b| =    30.000000
 CELL_REF| Vector c [angstrom     0.000     0.000    30.000   |c| =    30.000000
 CELL_REF| Angle (b,c), alpha [degree]:                                90.000000
 CELL_REF| Angle (a,c), beta  [degree]:                                90.000000
 CELL_REF| Angle (a,b), gamma [degree]:                                90.000000
 CELL_REF| Numerically orthorhombic:                                         YES
 CELL_REF| Periodicity                                                      NONE

 *******************************************************************************
 *******************************************************************************
 **                                                                           **
 **     #####                         ##              ##                      **
 **    ##   ##            ##          ##              ##                      **
 **   ##     ##                       ##            ######                    **
 **   ##     ##  ##   ##  ##   #####  ##  ##   ####   ##    #####    #####    **
 **   ##     ##  ##   ##  ##  ##      ## ##   ##      ##   ##   ##  ##   ##   **
 **   ##  ## ##  ##   ##  ##  ##      ####     ###    ##   ######   ######    **
 **    ##  ###   ##   ##  ##  ##      ## ##      ##   ##   ##       ##        **
 **     #######   #####   ##   #####  ##  ##  ####    ##    #####   ##        **
 **           ##                                                    ##        **
 **                                                                           **
 **                                                ... make the atoms dance   **
 **                                                                           **
 **            Copyright (C) by CP2K developers group (2000-2025)             **
 **                      J. Chem. Phys. 152, 194103 (2020)                    **
 **                                                                           **
 *******************************************************************************

 DFT| Spin restricted Kohn-Sham (RKS) calculation                            RKS
 DFT| Multiplicity                                                             1
 DFT| Number of spin states                                                    1
 DFT| Charge                                                                   0
 DFT| Self-interaction correction (SIC)                                       NO
 DFT| Cutoffs: density                                              1.000000E-10
 DFT|          gradient                                             1.000000E-10
 DFT|          tau                                                  1.000000E-10
 DFT|          cutoff_smoothing_range                               0.000000E+00
 DFT| XC density smoothing                                                  NONE
 DFT| XC derivatives                                                          PW

 FUNCTIONAL| PBE:
 FUNCTIONAL| J.P.Perdew, K.Burke, M.Ernzerhof, Phys. Rev. Letter, vol. 77, n 18,
 FUNCTIONAL|  pp. 3865-3868, (1996)sx=0.750sc=1.000{spin unpolarized}           


 QS| Method:                                                                GAPW
 QS| Density plane wave grid type                        NON-SPHERICAL FULLSPACE
 QS| Number of grid levels:                                                    4
 QS| Density cutoff [a.u.]:                                                250.0
 QS| Multi grid cutoff [a.u.]: 1) grid level                               250.0
 QS|                           2) grid level                                83.3
 QS|                           3) grid level                                27.8
 QS|                           4) grid level                                 9.3
 QS| Grid level progression factor:                                          3.0
 QS| Relative density cutoff [a.u.]:                                        50.0
 QS| Interaction thresholds: eps_pgf_orb:                                1.0E-12
 QS|                         eps_filter_matrix:                          0.0E+00
 QS|                         eps_core_charge:                            1.0E-14
 QS|                         eps_rho_gspace:                             1.0E-12
 QS|                         eps_rho_rspace:                             1.0E-12
 QS|                         eps_gvg_rspace:                             1.0E-06
 QS|                         eps_ppl:                                    1.0E-02
 QS|                         eps_ppnl:                                   1.0E-08
 QS| GAPW|      One center basis from orbital basis primitives
 QS| GAPW|                   eps_fit:                                    1.0E-04
 QS| GAPW|                   eps_iso:                                    1.0E-12
 QS| GAPW|                   eps_svd:                                    1.0E-08
 QS| GAPW|                   eps_cpc:                                    1.0E-12
 QS| GAPW|   atom-r-grid: quadrature:                                     GC_LOG
 QS| GAPW|      atom-s-grid:  max l :                                          4
 QS| GAPW|      max_l_rho0 :                                                   2


 ATOMIC KIND INFORMATION

  1. Atomic kind: C                                     Number of atoms:       1

     Orbital Basis Set                                         aug-SZV-MOLOPT-ae

       Number of orbital shell sets:                                           2
       Number of orbital shells:                                               6
       Number of primitive Cartesian functions:                               13
       Number of Cartesian basis functions:                                   15
       Number of spherical basis functions:                                   14
       Norm type:                                                              2

       Normalised Cartesian orbitals:

                        Set   Shell   Orbital            Exponent    Coefficient

                          1       1    2s                0.070000       0.000000
                                                         0.143687       0.040037
                                                         0.313471       0.177689
                                                         0.721783       0.139661
                                                         1.876046      -0.038599
                                                         6.036200      -0.128975
                                                        30.497239      -0.122578

                          1       2    3s                0.070000      -0.142268
                                                         0.143687       0.288819
                                                         0.313471       0.010360
                                                         0.721783       0.175994
                                                         1.876046       0.000000
                                                         6.036200       0.000000
                                                        30.497239       0.000000

                          1       3    3px               0.070000       0.000000
                                                         0.143687       0.012825
                                                         0.313471       0.142381
                                                         0.721783       0.396426
                                                         1.876046       0.544234
                                                         6.036200       0.508157
                                                        30.497239       0.384077
                          1       3    3py               0.070000       0.000000
                                                         0.143687       0.012825
                                                         0.313471       0.142381
                                                         0.721783       0.396426
                                                         1.876046       0.544234
                                                         6.036200       0.508157
                                                        30.497239       0.384077
                          1       3    3pz               0.070000       0.000000
                                                         0.143687       0.012825
                                                         0.313471       0.142381
                                                         0.721783       0.396426
                                                         1.876046       0.544234
                                                         6.036200       0.508157
                                                        30.497239       0.384077

                          1       4    4px               0.070000       0.076505
                                                         0.143687      -0.086104
                                                         0.313471       0.010230
                                                         0.721783       0.129894
                                                         1.876046       0.000000
                                                         6.036200       0.000000
                                                        30.497239       0.000000
                          1       4    4py               0.070000       0.076505
                                                         0.143687      -0.086104
                                                         0.313471       0.010230
                                                         0.721783       0.129894
                                                         1.876046       0.000000
                                                         6.036200       0.000000
                                                        30.497239       0.000000
                          1       4    4pz               0.070000       0.076505
                                                         0.143687      -0.086104
                                                         0.313471       0.010230
                                                         0.721783       0.129894
                                                         1.876046       0.000000
                                                         6.036200       0.000000
                                                        30.497239       0.000000

                          1       5    4dx2              0.070000       0.004316
                                                         0.143687       0.012639
                                                         0.313471       0.125057
                                                         0.721783       0.080411
                                                         1.876046       0.000000
                                                         6.036200       0.000000
                                                        30.497239       0.000000
                          1       5    4dxy              0.070000       0.007476
                                                         0.143687       0.021892
                                                         0.313471       0.216606
                                                         0.721783       0.139276
                                                         1.876046       0.000000
                                                         6.036200       0.000000
                                                        30.497239       0.000000
                          1       5    4dxz              0.070000       0.007476
                                                         0.143687       0.021892
                                                         0.313471       0.216606
                                                         0.721783       0.139276
                                                         1.876046       0.000000
                                                         6.036200       0.000000
                                                        30.497239       0.000000
                          1       5    4dy2              0.070000       0.004316
                                                         0.143687       0.012639
                                                         0.313471       0.125057
                                                         0.721783       0.080411
                                                         1.876046       0.000000
                                                         6.036200       0.000000
                                                        30.497239       0.000000
                          1       5    4dyz              0.070000       0.007476
                                                         0.143687       0.021892
                                                         0.313471       0.216606
                                                         0.721783       0.139276
                                                         1.876046       0.000000
                                                         6.036200       0.000000
                                                        30.497239       0.000000
                          1       5    4dz2              0.070000       0.004316
                                                         0.143687       0.012639
                                                         0.313471       0.125057
                                                         0.721783       0.080411
                                                         1.876046       0.000000
                                                         6.036200       0.000000
                                                        30.497239       0.000000

                          2       1    1s              742.737049       0.929185
                                                       136.180025       1.402437
                                                        38.098264       1.841991
                                                        13.087782       1.817278
                                                         5.082369       1.004768
                                                         2.093200       0.161650

     RI Auxiliary Basis Set             RI_aug-SZV-MOLOPT-ae_N_RI_048_s_p_d_f_g_

       Number of orbital shell sets:                                          14
       Number of orbital shells:                                              14
       Number of primitive Cartesian functions:                               14
       Number of Cartesian basis functions:                                   62
       Number of spherical basis functions:                                   48
       Norm type:                                                              2

       Normalised Cartesian orbitals:

                        Set   Shell   Orbital            Exponent    Coefficient

                          1       1    1s                0.182132       0.198701

                          2       1    7px               0.213594       0.206979
                          2       1    7py               0.213594       0.206979
                          2       1    7pz               0.213594       0.206979

                          3       1   10dx2              0.381125       0.304282
                          3       1   10dxy              0.381125       0.527033
                          3       1   10dxz              0.381125       0.527033
                          3       1   10dy2              0.381125       0.304282
                          3       1   10dyz              0.381125       0.527033
                          3       1   10dz2              0.381125       0.304282

                          4       1    2s                0.433905       0.381027

                          5       1   12fx3              0.524446       0.344573
                          5       1   12fx2y             0.524446       0.770488
                          5       1   12fx2z             0.524446       0.770488
                          5       1   12fxy2             0.524446       0.770488
                          5       1   12fxyz             0.524446       1.334524
                          5       1   12fxz2             0.524446       0.770488
                          5       1   12fy3              0.524446       0.344573
                          5       1   12fy2z             0.524446       0.770488
                          5       1   12fyz2             0.524446       0.770488
                          5       1   12fz3              0.524446       0.344573

                          6       1    8px               0.915857       1.277099
                          6       1    8py               0.915857       1.277099
                          6       1    8pz               0.915857       1.277099

                          7       1   14gx4              1.217666       1.912659
                          7       1   14gx3y             1.217666       5.060419
                          7       1   14gx3z             1.217666       5.060419
                          7       1   14gx2y2            1.217666       6.532973
                          7       1   14gx2yz            1.217666      11.315442
                          7       1   14gx2z2            1.217666       6.532973
                          7       1   14gxy3             1.217666       5.060419
                          7       1   14gxy2z            1.217666      11.315442
                          7       1   14gxyz2            1.217666      11.315442
                          7       1   14gxz3             1.217666       5.060419
                          7       1   14gy4              1.217666       1.912659
                          7       1   14gy3z             1.217666       5.060419
                          7       1   14gy2z2            1.217666       6.532973
                          7       1   14gyz3             1.217666       5.060419
                          7       1   14gz4              1.217666       1.912659

                          8       1   11dx2              1.581488       3.670921
                          8       1   11dxy              1.581488       6.358221
                          8       1   11dxz              1.581488       6.358221
                          8       1   11dy2              1.581488       3.670921
                          8       1   11dyz              1.581488       6.358221
                          8       1   11dz2              1.581488       3.670921

                          9       1    3s                1.620693       1.023730

                         10       1   13fx3              2.677157      13.496481
                         10       1   13fx2y             2.677157      30.179050
                         10       1   13fx2z             2.677157      30.179050
                         10       1   13fxy2             2.677157      30.179050
                         10       1   13fxyz             2.677157      52.271648
                         10       1   13fxz2             2.677157      30.179050
                         10       1   13fy3              2.677157      13.496481
                         10       1   13fy2z             2.677157      30.179050
                         10       1   13fyz2             2.677157      30.179050
                         10       1   13fz3              2.677157      13.496481

                         11       1    4s                5.999661       2.732154

                         12       1    9px               9.284861      23.102519
                         12       1    9py               9.284861      23.102519
                         12       1    9pz               9.284861      23.102519

                         13       1    5s               22.224963       7.295262

                         14       1    6s               82.329769      19.479498

       Atomic covalent radius [Angstrom]:                                  0.770

       Atomic van der Waals radius [Angstrom]:                             1.700

     The atoms of this atomic kind are PAW atoms (GAPW):
       Hard Gaussian function radius:                                      1.512
       Rho0 radius:                                                        1.512
       Maximum GTO radius used for PAW projector construction:            24.566

     GAPW Soft Basis Set                                  aug-SZV-MOLOPT-ae_soft

       Number of orbital shell sets:                                           2
       Number of orbital shells:                                               6
       Number of primitive Cartesian functions:                                6
       Number of Cartesian basis functions:                                   15
       Number of spherical basis functions:                                   14
       Norm type:                                                              2

       Normalised Cartesian orbitals:

                        Set   Shell   Orbital            Exponent    Coefficient

                          1       1    2s                0.070000       0.000000
                                                         0.143687       0.040037
                                                         0.313471       0.177689
                                                         0.721783       0.139661
                                                         1.876046      -0.038599

                          1       2    3s                0.070000      -0.142268
                                                         0.143687       0.288819
                                                         0.313471       0.010360
                                                         0.721783       0.175994
                                                         1.876046       0.000000

                          1       3    3px               0.070000       0.000000
                                                         0.143687       0.012825
                                                         0.313471       0.142381
                                                         0.721783       0.396426
                                                         1.876046       0.544234
                          1       3    3py               0.070000       0.000000
                                                         0.143687       0.012825
                                                         0.313471       0.142381
                                                         0.721783       0.396426
                                                         1.876046       0.544234
                          1       3    3pz               0.070000       0.000000
                                                         0.143687       0.012825
                                                         0.313471       0.142381
                                                         0.721783       0.396426
                                                         1.876046       0.544234

                          1       4    4px               0.070000       0.076505
                                                         0.143687      -0.086104
                                                         0.313471       0.010230
                                                         0.721783       0.129894
                                                         1.876046       0.000000
                          1       4    4py               0.070000       0.076505
                                                         0.143687      -0.086104
                                                         0.313471       0.010230
                                                         0.721783       0.129894
                                                         1.876046       0.000000
                          1       4    4pz               0.070000       0.076505
                                                         0.143687      -0.086104
                                                         0.313471       0.010230
                                                         0.721783       0.129894
                                                         1.876046       0.000000

                          1       5    4dx2              0.070000       0.004316
                                                         0.143687       0.012639
                                                         0.313471       0.125057
                                                         0.721783       0.080411
                                                         1.876046       0.000000
                          1       5    4dxy              0.070000       0.007476
                                                         0.143687       0.021892
                                                         0.313471       0.216606
                                                         0.721783       0.139276
                                                         1.876046       0.000000
                          1       5    4dxz              0.070000       0.007476
                                                         0.143687       0.021892
                                                         0.313471       0.216606
                                                         0.721783       0.139276
                                                         1.876046       0.000000
                          1       5    4dy2              0.070000       0.004316
                                                         0.143687       0.012639
                                                         0.313471       0.125057
                                                         0.721783       0.080411
                                                         1.876046       0.000000
                          1       5    4dyz              0.070000       0.007476
                                                         0.143687       0.021892
                                                         0.313471       0.216606
                                                         0.721783       0.139276
                                                         1.876046       0.000000
                          1       5    4dz2              0.070000       0.004316
                                                         0.143687       0.012639
                                                         0.313471       0.125057
                                                         0.721783       0.080411
                                                         1.876046       0.000000

                          2       1    1s                2.093200       0.161650

     AE Potential information for                                            ALL

       Description:                                       All-electron potential
                                          Krack, Parrinello, PCCP 2, 2105 (2000)

       Gaussian exponent of the core charge distribution:               4.109048
       Electronic configuration (s p d ...):                           4   2   0

  2. Atomic kind: O                                     Number of atoms:       2

     Orbital Basis Set                                         aug-SZV-MOLOPT-ae

       Number of orbital shell sets:                                           2
       Number of orbital shells:                                               5
       Number of primitive Cartesian functions:                               13
       Number of Cartesian basis functions:                                    9
       Number of spherical basis functions:                                    9
       Norm type:                                                              2

       Normalised Cartesian orbitals:

                        Set   Shell   Orbital            Exponent    Coefficient

                          1       1    1s                0.123000       0.000000
                                                         0.245881       0.059902
                                                         0.536420       0.265853
                                                         1.235135       0.208956
                                                         3.210345      -0.057750
                                                        10.329320      -0.192968
                                                        52.187762      -0.183398

                          1       2    2s                0.123000      -0.253465
                                                         0.245881       0.187097
                                                         0.536420       0.063592
                                                         1.235135       0.074938
                                                         3.210345       0.000000
                                                        10.329320       0.000000
                                                        52.187762       0.000000

                          1       3    2px               0.123000       0.000000
                                                         0.245881       0.025102
                                                         0.536420       0.278668
                                                         1.235135       0.775885
                                                         3.210345       1.065175
                                                        10.329320       0.994565
                                                        52.187762       0.751716
                          1       3    2py               0.123000       0.000000
                                                         0.245881       0.025102
                                                         0.536420       0.278668
                                                         1.235135       0.775885
                                                         3.210345       1.065175
                                                        10.329320       0.994565
                                                        52.187762       0.751716
                          1       3    2pz               0.123000       0.000000
                                                         0.245881       0.025102
                                                         0.536420       0.278668
                                                         1.235135       0.775885
                                                         3.210345       1.065175
                                                        10.329320       0.994565
                                                        52.187762       0.751716

                          1       4    3px               0.123000       0.048536
                                                         0.245881       0.257066
                                                         0.536420      -0.539300
                                                         1.235135      -0.153605
                                                         3.210345       0.000000
                                                        10.329320       0.000000
                                                        52.187762       0.000000
                          1       4    3py               0.123000       0.048536
                                                         0.245881       0.257066
                                                         0.536420      -0.539300
                                                         1.235135      -0.153605
                                                         3.210345       0.000000
                                                        10.329320       0.000000
                                                        52.187762       0.000000
                          1       4    3pz               0.123000       0.048536
                                                         0.245881       0.257066
                                                         0.536420      -0.539300
                                                         1.235135      -0.153605
                                                         3.210345       0.000000
                                                        10.329320       0.000000
                                                        52.187762       0.000000

                          2       1    1s             1355.584234       1.459053
                                                       248.544885       2.202176
                                                        69.533902       2.892385
                                                        23.886772       2.853580
                                                         9.275933       1.577736
                                                         3.820341       0.253831

     RI Auxiliary Basis Set             RI_aug-SZV-MOLOPT-ae_N_RI_039_s_p_d_f_g_

       Number of orbital shell sets:                                          13
       Number of orbital shells:                                              13
       Number of primitive Cartesian functions:                               13
       Number of Cartesian basis functions:                                   45
       Number of spherical basis functions:                                   39
       Norm type:                                                              2

       Normalised Cartesian orbitals:

                        Set   Shell   Orbital            Exponent    Coefficient

                          1       1    6px               0.339985       0.370054
                          1       1    6py               0.339985       0.370054
                          1       1    6pz               0.339985       0.370054

                          2       1    1s                0.360717       0.331730

                          3       1   10dx2              0.387676       0.313495
                          3       1   10dxy              0.387676       0.542989
                          3       1   10dxz              0.387676       0.542989
                          3       1   10dy2              0.387676       0.313495
                          3       1   10dyz              0.387676       0.542989
                          3       1   10dz2              0.387676       0.313495

                          4       1    2s                1.025597       0.726344

                          5       1   11dx2              1.429532       3.076087
                          5       1   11dxy              1.429532       5.327939
                          5       1   11dxz              1.429532       5.327939
                          5       1   11dy2              1.429532       3.076087
                          5       1   11dyz              1.429532       5.327939
                          5       1   11dz2              1.429532       3.076087

                          6       1    7px               1.889939       3.158637
                          6       1    7py               1.889939       3.158637
                          6       1    7pz               1.889939       3.158637

                          7       1   13fx3              2.090453       7.735623
                          7       1   13fx2y             2.090453      17.297380
                          7       1   13fx2z             2.090453      17.297380
                          7       1   13fxy2             2.090453      17.297380
                          7       1   13fxyz             2.090453      29.959941
                          7       1   13fxz2             2.090453      17.297380
                          7       1   13fy3              2.090453       7.735623
                          7       1   13fy2z             2.090453      17.297380
                          7       1   13fyz2             2.090453      17.297380
                          7       1   13fz3              2.090453       7.735623

                          8       1    3s                4.532550       2.213946

                          9       1   12dx2              4.657163      24.300880
                          9       1   12dxy              4.657163      42.090359
                          9       1   12dxz              4.657163      42.090359
                          9       1   12dy2              4.657163      24.300880
                          9       1   12dyz              4.657163      42.090359
                          9       1   12dz2              4.657163      24.300880

                         10       1    8px               7.383619      17.349090
                         10       1    8py               7.383619      17.349090
                         10       1    8pz               7.383619      17.349090

                         11       1    4s               28.138782       8.707411

                         12       1    9px              31.263869     105.376434
                         12       1    9py              31.263869     105.376434
                         12       1    9pz              31.263869     105.376434

                         13       1    5s              157.923413      31.750092

       Atomic covalent radius [Angstrom]:                                  0.730

       Atomic van der Waals radius [Angstrom]:                             1.520

     The atoms of this atomic kind are PAW atoms (GAPW):
       Hard Gaussian function radius:                                      1.512
       Rho0 radius:                                                        1.512
       Maximum GTO radius used for PAW projector construction:            24.566

     GAPW Soft Basis Set                                  aug-SZV-MOLOPT-ae_soft

       Number of orbital shell sets:                                           2
       Number of orbital shells:                                               5
       Number of primitive Cartesian functions:                                6
       Number of Cartesian basis functions:                                    9
       Number of spherical basis functions:                                    9
       Norm type:                                                              2

       Normalised Cartesian orbitals:

                        Set   Shell   Orbital            Exponent    Coefficient

                          1       1    1s                0.123000       0.000000
                                                         0.245881       0.059902
                                                         0.536420       0.265853
                                                         1.235135       0.208956
                                                         3.210345      -0.057750

                          1       2    2s                0.123000      -0.253465
                                                         0.245881       0.187097
                                                         0.536420       0.063592
                                                         1.235135       0.074938
                                                         3.210345       0.000000

                          1       3    2px               0.123000       0.000000
                                                         0.245881       0.025102
                                                         0.536420       0.278668
                                                         1.235135       0.775885
                                                         3.210345       1.065175
                          1       3    2py               0.123000       0.000000
                                                         0.245881       0.025102
                                                         0.536420       0.278668
                                                         1.235135       0.775885
                                                         3.210345       1.065175
                          1       3    2pz               0.123000       0.000000
                                                         0.245881       0.025102
                                                         0.536420       0.278668
                                                         1.235135       0.775885
                                                         3.210345       1.065175

                          1       4    3px               0.123000       0.048536
                                                         0.245881       0.257066
                                                         0.536420      -0.539300
                                                         1.235135      -0.153605
                                                         3.210345       0.000000
                          1       4    3py               0.123000       0.048536
                                                         0.245881       0.257066
                                                         0.536420      -0.539300
                                                         1.235135      -0.153605
                                                         3.210345       0.000000
                          1       4    3pz               0.123000       0.048536
                                                         0.245881       0.257066
                                                         0.536420      -0.539300
                                                         1.235135      -0.153605
                                                         3.210345       0.000000

                          2       1    1s                3.820341       0.253831

     AE Potential information for                                            ALL

       Description:                                       All-electron potential
                                          Krack, Parrinello, PCCP 2, 2105 (2000)

       Gaussian exponent of the core charge distribution:               8.154466
       Electronic configuration (s p d ...):                           4   4   0


 MOLECULE KIND INFORMATION


 All atoms are their own molecule, skipping detailed information


 TOTAL NUMBERS AND MAXIMUM NUMBERS

  Total number of            - Atomic kinds:                                   2
                             - Atoms:                                          3
                             - Shell sets:                                     6
                             - Shells:                                        16
                             - Primitive Cartesian functions:                 39
                             - Cartesian basis functions:                     33
                             - Spherical basis functions:                     32

  Maximum angular momentum of the orbital basis functions:                     2


 MODULE QUICKSTEP: ATOMIC COORDINATES IN ANGSTROM

   Atom Kind Element         X             Y             Z       Z(eff)     Mass
      1    1 C     6     15.000000     15.000000     15.000000   6.0000  12.0107
      2    2 O     8     16.162600     15.000000     15.000000   8.0000  15.9994
      3    2 O     8     13.837400     15.000000     15.000000   8.0000  15.9994



 SCF PARAMETERS         Density guess:                                    ATOMIC
                        --------------------------------------------------------
                        max_scf:                                             500
                        max_scf_history:                                       0
                        max_diis:                                              4
                        --------------------------------------------------------
                        eps_scf:                                        1.00E-06
                        eps_scf_history:                                0.00E+00
                        eps_diis:                                       1.00E-01
                        eps_eigval:                                     1.00E-05
                        --------------------------------------------------------
                        level_shift [a.u.]:                             0.000000
                        added MOs                                        21    0
                        --------------------------------------------------------
                        Mixing method:                            BROYDEN_MIXING
                                                charge density mixing in g-space
                        --------------------------------------------------------
                        No outer SCF

 PW_GRID| Information for grid number                                          1
 PW_GRID| Grid distributed over                                    48 processors
 PW_GRID| Real space group dimensions                                    48    1
 PW_GRID| the grid is blocked:                                                NO
 PW_GRID| Cutoff [a.u.]                                                    250.0
 PW_GRID| spherical cutoff:                                                   NO
 PW_GRID|   Bounds   1           -202     202                Points:         405
 PW_GRID|   Bounds   2           -202     202                Points:         405
 PW_GRID|   Bounds   3           -202     202                Points:         405
 PW_GRID| Volume element (a.u.^3)  0.2743E-02     Volume (a.u.^3)    182205.0337
 PW_GRID| Grid span                                                    FULLSPACE
 PW_GRID|   Distribution                         Average         Max         Min
 PW_GRID|   G-Vectors                          1383960.9     1384290     1383885
 PW_GRID|   G-Rays                                3417.2        3418        3417
 PW_GRID|   Real Space Points                  1383960.9     1476225     1312200

 PW_GRID| Information for grid number                                          2
 PW_GRID| Number of the reference grid                                         1
 PW_GRID| Grid distributed over                                    48 processors
 PW_GRID| Real space group dimensions                                    48    1
 PW_GRID| the grid is blocked:                                                NO
 PW_GRID| Cutoff [a.u.]                                                     83.3
 PW_GRID| spherical cutoff:                                                   NO
 PW_GRID|   Bounds   1           -120     119                Points:         240
 PW_GRID|   Bounds   2           -120     119                Points:         240
 PW_GRID|   Bounds   3           -120     119                Points:         240
 PW_GRID| Volume element (a.u.^3)  0.1318E-01     Volume (a.u.^3)    182205.0337
 PW_GRID| Grid span                                                    FULLSPACE
 PW_GRID|   Distribution                         Average         Max         Min
 PW_GRID|   G-Vectors                           288000.0      288720      287520
 PW_GRID|   G-Rays                                1200.0        1203        1198
 PW_GRID|   Real Space Points                   288000.0      288000      288000

 PW_GRID| Information for grid number                                          3
 PW_GRID| Number of the reference grid                                         1
 PW_GRID| Grid distributed over                                    48 processors
 PW_GRID| Real space group dimensions                                    48    1
 PW_GRID| the grid is blocked:                                                NO
 PW_GRID| Cutoff [a.u.]                                                     27.8
 PW_GRID| spherical cutoff:                                                   NO
 PW_GRID|   Bounds   1            -67      67                Points:         135
 PW_GRID|   Bounds   2            -67      67                Points:         135
 PW_GRID|   Bounds   3            -67      67                Points:         135
 PW_GRID| Volume element (a.u.^3)  0.7406E-01     Volume (a.u.^3)    182205.0337
 PW_GRID| Grid span                                                    FULLSPACE
 PW_GRID|   Distribution                         Average         Max         Min
 PW_GRID|   G-Vectors                            51257.8       51570       51030
 PW_GRID|   G-Rays                                 379.7         382         378
 PW_GRID|   Real Space Points                    51257.8       54675       36450

 PW_GRID| Information for grid number                                          4
 PW_GRID| Number of the reference grid                                         1
 PW_GRID| Grid distributed over                                    48 processors
 PW_GRID| Real space group dimensions                                    48    1
 PW_GRID| the grid is blocked:                                                NO
 PW_GRID| Cutoff [a.u.]                                                      9.3
 PW_GRID| spherical cutoff:                                                   NO
 PW_GRID|   Bounds   1            -40      39                Points:          80
 PW_GRID|   Bounds   2            -40      39                Points:          80
 PW_GRID|   Bounds   3            -40      39                Points:          80
 PW_GRID| Volume element (a.u.^3)  0.3559         Volume (a.u.^3)    182205.0337
 PW_GRID| Grid span                                                    FULLSPACE
 PW_GRID|   Distribution                         Average         Max         Min
 PW_GRID|   G-Vectors                            10666.7       10800       10560
 PW_GRID|   G-Rays                                 133.3         135         132
 PW_GRID|   Real Space Points                    10666.7       12800        6400

 POISSON| Solver                                                         WAVELET
 POISSON| Wavelet| Scaling function                                           40
 POISSON| Periodicity                                                       NONE

 RS_GRID| Information for grid number                                          1
 RS_GRID|   Bounds   1           -202     202                Points:         405
 RS_GRID|   Bounds   2           -202     202                Points:         405
 RS_GRID|   Bounds   3           -202     202                Points:         405
 RS_GRID| Real space distribution over                                  3 groups
 RS_GRID| Real space distribution along direction                              1
 RS_GRID| Border size                                                         33
 RS_GRID| Real space distribution over                                  4 groups
 RS_GRID| Real space distribution along direction                              2
 RS_GRID| Border size                                                         33
 RS_GRID| Real space distribution over                                  4 groups
 RS_GRID| Real space distribution along direction                              3
 RS_GRID| Border size                                                         33
 RS_GRID|   Distribution                         Average         Max         Min
 RS_GRID|   Planes                                 201.0         201         201
 RS_GRID|   Distribution                         Average         Max         Min
 RS_GRID|   Planes                                 167.2         168         167
 RS_GRID|   Distribution                         Average         Max         Min
 RS_GRID|   Planes                                 167.2         168         167

 RS_GRID| Information for grid number                                          2
 RS_GRID|   Bounds   1           -120     119                Points:         240
 RS_GRID|   Bounds   2           -120     119                Points:         240
 RS_GRID|   Bounds   3           -120     119                Points:         240
 RS_GRID| Real space distribution over                                  3 groups
 RS_GRID| Real space distribution along direction                              1
 RS_GRID| Border size                                                         36
 RS_GRID| Real space distribution over                                  4 groups
 RS_GRID| Real space distribution along direction                              2
 RS_GRID| Border size                                                         36
 RS_GRID| Real space distribution over                                  4 groups
 RS_GRID| Real space distribution along direction                              3
 RS_GRID| Border size                                                         36
 RS_GRID|   Distribution                         Average         Max         Min
 RS_GRID|   Planes                                 152.0         152         152
 RS_GRID|   Distribution                         Average         Max         Min
 RS_GRID|   Planes                                 132.0         132         132
 RS_GRID|   Distribution                         Average         Max         Min
 RS_GRID|   Planes                                 132.0         132         132

 RS_GRID| Information for grid number                                          3
 RS_GRID|   Bounds   1            -67      67                Points:         135
 RS_GRID|   Bounds   2            -67      67                Points:         135
 RS_GRID|   Bounds   3            -67      67                Points:         135
 RS_GRID| Real space fully replicated
 RS_GRID| Group size                                                           1

 RS_GRID| Information for grid number                                          4
 RS_GRID|   Bounds   1            -40      39                Points:          80
 RS_GRID|   Bounds   2            -40      39                Points:          80
 RS_GRID|   Bounds   3            -40      39                Points:          80
 RS_GRID| Real space fully replicated
 RS_GRID| Group size                                                           1

  HFX_INFO| Replica ID:                                                        1
  HFX_INFO| FRACTION:                                               0.2500000000
  HFX_INFO| Interaction Potential:                                       COULOMB
  HFX_INFO| EPS_SCHWARZ:                                                 1.0E-10
  HFX_INFO| EPS_SCHWARZ_FORCES                                           1.0E-08
  HFX_INFO| EPS_STORAGE_SCALING:                                         1.0E+00
  HFX_INFO| NBINS:                                                            64
  HFX_INFO| BLOCK_SIZE:                                                        1
  HFX_INFO| Number of periodic shells considered:                           NONE
  HFX_INFO| Number of periodic cells considered:                            NONE

 
 RI-RPA| using GPW style
 

 OVERLAP MATRIX CONDITION NUMBER
 1-Norm Condition Number (Estimate)
   CN : |A|*|A^-1|:  5.815E+000 *  6.885E+001   = 4.004E+002  Log(1-CN):  2.6025
 1-Norm and 2-Norm Condition Numbers using Diagonalization
   CN : |A|*|A^-1|:  5.815E+000 *  6.885E+001   = 4.004E+002  Log(1-CN):  2.6025
   CN : max/min ev:  3.672E+000 /  2.357E-002   = 1.558E+002  Log(2-CN):  2.1927

 Number of electrons:                                                         22
 Number of occupied orbitals:                                                 11
 Number of molecular orbitals:                                                32

 Number of orbital functions:                                                 32
 Number of independent orbital functions:                                     32

 Extrapolation method: initial_guess

 Atomic guess: The first density matrix is obtained in terms of atomic orbitals
               and electronic configurations assigned to each atomic kind

 Guess for atomic kind: C

 Electronic structure
    Total number of core electrons                                          0.00
    Total number of valence electrons                                       6.00
    Total number of electrons                                               6.00
    Multiplicity                                                   not specified
    S      2.00  2.00
    P      2.00


 *******************************************************************************
                  Iteration          Convergence                     Energy [au]
 *******************************************************************************
                          1        0.181972E-01                 -37.327047058214
                          2        0.113690E-01                 -37.327375013153
                          3        0.204442E-03                 -37.327563854518
                          4        0.318580E-06                 -37.327563914839

 Energy components [Hartree]           Total Energy ::          -37.327563914839
                                        Band Energy ::          -20.907151793925
                                     Kinetic Energy ::           37.918401132701
                                   Potential Energy ::          -75.245965047540
                                      Virial (-V/T) ::            1.984418192745
                                        Core Energy ::          -50.466619839572
                                          XC Energy ::           -4.803795746723
                                     Coulomb Energy ::           17.942851671456

 Orbital energies  State     L     Occupation   Energy[a.u.]          Energy[eV]

                       1     0          2.000      -9.826687         -267.397747
                       2     0          2.000      -0.471401          -12.827469

                       1     1          2.000      -0.155488           -4.231050


 Total Electron Density at R=0:                                       107.717880

 Guess for atomic kind: O

 Electronic structure
    Total number of core electrons                                          0.00
    Total number of valence electrons                                       8.00
    Total number of electrons                                               8.00
    Multiplicity                                                   not specified
    S      2.00  2.00
    P      4.00


 *******************************************************************************
                  Iteration          Convergence                     Energy [au]
 *******************************************************************************
                          1        0.735249                     -74.156692399509
                          2        0.374970                     -74.229519281434
                          3        0.137476E-02                 -74.265323889138
                          4        0.125117E-03                 -74.265324305080
                          5        0.240576E-05                 -74.265324309459
                          6        0.135447E-05                 -74.265324309460
                          7        0.538171E-07                 -74.265324309461

 Energy components [Hartree]           Total Energy ::          -74.265324309461
                                        Band Energy ::          -41.262202594008
                                     Kinetic Energy ::           72.991524336317
                                   Potential Energy ::         -147.256848645778
                                      Virial (-V/T) ::            2.017451340888
                                        Core Energy ::         -102.038650666845
                                          XC Energy ::           -7.668930692176
                                     Coulomb Energy ::           35.442257049561

 Orbital energies  State     L     Occupation   Energy[a.u.]          Energy[eV]

                       1     0          2.000     -18.982629         -516.543598
                       2     0          2.000      -0.922184          -25.093913

                       1     1          4.000      -0.363144           -9.881653


 Total Electron Density at R=0:                                       265.214148
 Re-scaling the density matrix to get the right number of electrons
                  # Electrons              Trace(P)               Scaling factor
                           22                22.000                        1.000


 SCF WAVEFUNCTION OPTIMIZATION

  Step     Update method      Time    Convergence         Total energy    Change
  ------------------------------------------------------------------------------

  HFX_MEM_INFO| Est. max. program size before HFX [MiB]:                    1302
  HFX_MEM_INFO| Number of cart. primitive ERI's calculated:            116417128
  HFX_MEM_INFO| Number of sph. ERI's calculated:                          283272
  HFX_MEM_INFO| Number of sph. ERI's stored in-core:                      283272
  HFX_MEM_INFO| Number of sph. ERI's stored on disk:                           0
  HFX_MEM_INFO| Number of sph. ERI's calculated on the fly:                    0
  HFX_MEM_INFO| Total memory consumption ERI's RAM [MiB]:                      3
  HFX_MEM_INFO| Whereof max-vals [MiB]:                                        2
  HFX_MEM_INFO| Total compression factor ERI's RAM:                         0.93
  HFX_MEM_INFO| Total memory consumption ERI's disk [MiB]:                     0
  HFX_MEM_INFO| Total compression factor ERI's disk:                        0.00
  HFX_MEM_INFO| Size of density/Fock matrix [MiB]:                             0
  HFX_MEM_INFO| Size of buffers [MiB]:                                         0
  HFX_MEM_INFO| Est. max. program size after HFX  [MiB]:                    1810

     1 NoMix/Diag. 0.10E+00    6.2     1.66935108      -188.5181042154 -1.89E+02
     2 Broy./Diag. 0.10E+00    2.5     0.06366465      -186.9090200351  1.61E+00
     3 Broy./Diag. 0.10E+00    2.7     0.24314062      -186.3489747738  5.60E-01
     4 Broy./Diag. 0.10E+00    2.6     0.78727372      -186.6002116553 -2.51E-01
     5 Broy./Diag. 0.10E+00    2.6     0.10234665      -188.6491093745 -2.05E+00
     6 Broy./Diag. 0.10E+00    2.7     0.09114649      -188.6485813332  5.28E-04
     7 Broy./Diag. 0.10E+00    2.7     0.10203833      -188.0693623550  5.79E-01
     8 Broy./Diag. 0.10E+00    2.8     0.04879678      -187.6535798176  4.16E-01
     9 Broy./Diag. 0.10E+00    2.8     0.00676627      -187.5041943381  1.49E-01
    10 Broy./Diag. 0.10E+00    2.8     0.09424381      -187.5754561279 -7.13E-02
    11 Broy./Diag. 0.10E+00    2.8     0.06918080      -187.8150655588 -2.40E-01
    12 Broy./Diag. 0.10E+00    2.8     0.01860587      -187.9668197613 -1.52E-01
    13 Broy./Diag. 0.10E+00    2.9     0.00250734      -188.0133680278 -4.65E-02
    14 Broy./Diag. 0.10E+00    2.9     0.07264577      -187.9907063672  2.27E-02
    15 Broy./Diag. 0.10E+00    2.8     0.01334063      -187.8721786645  1.19E-01
    16 Broy./Diag. 0.10E+00    2.8     0.00255499      -187.8457453833  2.64E-02
    17 Broy./Diag. 0.10E+00    2.9     0.02193784      -187.8585293686 -1.28E-02
    18 Broy./Diag. 0.10E+00    2.9     0.00765393      -187.8980682595 -3.95E-02
    19 Broy./Diag. 0.10E+00    2.8     0.00944375      -187.8830129297  1.51E-02
    20 Broy./Diag. 0.10E+00    2.8     0.00097268      -187.8675840148  1.54E-02
    21 Broy./Diag. 0.10E+00    2.8     0.00452795      -187.8707894076 -3.21E-03
    22 Broy./Diag. 0.10E+00    2.9     0.00508820      -187.8755790134 -4.79E-03
    23 Broy./Diag. 0.10E+00    2.9     0.00296682      -187.8632517040  1.23E-02
    24 Broy./Diag. 0.10E+00    3.0     0.00065349      -187.8576161861  5.64E-03
    25 Broy./Diag. 0.10E+00    2.9     0.00166786      -187.8610054090 -3.39E-03
    26 Broy./Diag. 0.10E+00    2.8     0.00056210      -187.8662100101 -5.20E-03
    27 Broy./Diag. 0.10E+00    2.9     0.00141880      -187.8683988771 -2.19E-03
    28 Broy./Diag. 0.10E+00    2.8     0.00076271      -187.8667873560  1.61E-03
    29 Broy./Diag. 0.10E+00    2.8     0.00318098      -187.8696631106 -2.88E-03
    30 Broy./Diag. 0.10E+00    2.8     0.00029761      -187.8740443105 -4.38E-03
    31 Broy./Diag. 0.10E+00    2.8     0.00399727      -187.8677492257  6.30E-03
    32 Broy./Diag. 0.10E+00    2.9     0.00170856      -187.8645968796  3.15E-03
    33 Broy./Diag. 0.10E+00    2.9     0.00130477      -187.8684802331 -3.88E-03
    34 Broy./Diag. 0.10E+00    2.9     0.00025029      -187.8706192978 -2.14E-03
    35 Broy./Diag. 0.10E+00    2.9     0.00074260      -187.8697331336  8.86E-04
    36 Broy./Diag. 0.10E+00    2.9     0.00044391      -187.8677160583  2.02E-03
    37 Broy./Diag. 0.10E+00    2.9     0.00088102      -187.8686324296 -9.16E-04
    38 Broy./Diag. 0.10E+00    2.9     0.00029927      -187.8695880073 -9.56E-04
    39 Broy./Diag. 0.10E+00    2.9     0.00056149      -187.8684948861  1.09E-03
    40 Broy./Diag. 0.10E+00    2.9     0.00003570      -187.8675642250  9.31E-04
    41 Broy./Diag. 0.10E+00    2.8     0.00011246      -187.8682462680 -6.82E-04
    42 Broy./Diag. 0.10E+00    2.9     0.00032966      -187.8685481861 -3.02E-04
    43 Broy./Diag. 0.10E+00    2.9     0.00004349      -187.8679333348  6.15E-04
    44 Broy./Diag. 0.10E+00    2.9     0.00016486      -187.8679109758  2.24E-05
    45 Broy./Diag. 0.10E+00    2.9     0.00005664      -187.8682862939 -3.75E-04
    46 Broy./Diag. 0.10E+00    2.9     0.00014539      -187.8681479042  1.38E-04
    47 Broy./Diag. 0.10E+00    2.8     0.00008067      -187.8680193736  1.29E-04
    48 Broy./Diag. 0.10E+00    2.9     0.00003204      -187.8682483186 -2.29E-04
    49 Broy./Diag. 0.10E+00    2.9     0.00005744      -187.8682807970 -3.25E-05
    50 Broy./Diag. 0.10E+00    2.9     0.00001457      -187.8681593113  1.21E-04
    51 Broy./Diag. 0.10E+00    2.9     0.00004372      -187.8681546379  4.67E-06
    52 Broy./Diag. 0.10E+00    2.9     0.00003686      -187.8681663822 -1.17E-05
    53 Broy./Diag. 0.10E+00    2.9     0.00002619      -187.8681030836  6.33E-05
    54 Broy./Diag. 0.10E+00    2.9     0.00003067      -187.8681578798 -5.48E-05
    55 Broy./Diag. 0.10E+00    3.0     0.00001564      -187.8681781190 -2.02E-05
    56 Broy./Diag. 0.10E+00    2.9     0.00000791      -187.8681192869  5.88E-05
    57 Broy./Diag. 0.10E+00    2.9     0.00002209      -187.8681042704  1.50E-05
    58 Broy./Diag. 0.10E+00    2.9     0.00002124      -187.8681455938 -4.13E-05
    59 Broy./Diag. 0.10E+00    2.9     0.00000373      -187.8681620904 -1.65E-05
    60 Broy./Diag. 0.10E+00    2.9     0.00000076      -187.8681543475  7.74E-06

  *** SCF run converged in    60 steps ***


  Electronic density on regular grids:        -16.1552492176        5.8447507824
  Core density on regular grids:               22.0000000000        0.0000000000
  Hard and soft densities (Lebedev):          -88.4330504809      -82.5883010259
  Total Rho_soft + Rho1_hard - Rho1_soft      -21.9999986726
  Total charge density (r-space):               0.0000013274
  Total Rho_soft + Rho0_soft (g-space):         0.0000010754

  Overlap energy of the core charge distribution:               0.00001227858523
  Self energy of the core charge distribution:               -174.93298707478829
  Core Hamiltonian energy:                                    -22.26152075838452
  Hartree energy:                                              36.00292502172223
  Exchange-correlation energy:                                 -6.61916404252031
  Hartree-Fock Exchange energy:                                -5.35097216826384

  GAPW| Exc from hard and soft atomic rho1:                   -10.14693843457438
  GAPW| local Eh = 1 center integrals:                         -4.55950916926887

  Total energy:                                              -187.86815434749269

 !-----------------------------------------------------------------------------!
                     Mulliken Population Analysis

 #  Atom  Element  Kind  Atomic population                           Net charge
       1     C        1          5.701330                              0.298670
       2     O        2          8.149335                             -0.149335
       3     O        2          8.149335                             -0.149335
 # Total charge                             22.000000                 -0.000000

 !-----------------------------------------------------------------------------!

 !-----------------------------------------------------------------------------!
                           Hirshfeld Charges

  #Atom  Element  Kind  Ref Charge     Population                    Net charge
      1       C      1       6.000          5.437                         0.563
      2       O      2       8.000          8.280                        -0.280
      3       O      2       8.000          8.280                        -0.280

  Total Charge                                                            0.003
 !-----------------------------------------------------------------------------!


 RI-RPA section
 --------------

  Used number of processes per group:                                          1
  Maximum allowed memory usage per MPI process:                      1024.00 MiB
  RI_INFO| Cholesky decomposition group size:                                  4
  RI_INFO| Number of groups for auxiliary basis functions                     48

  RI_INFO| RI metric:                                                    COULOMB
  RI_INFO| Number of auxiliary basis functions:                              126
  GENERAL_INFO| Number of basis functions:                                    32
  GENERAL_INFO| Number of occupied orbitals:                                  11
  GENERAL_INFO| Number of virtual orbitals:                                   21
  RI_INFO| Total memory for (ia|K) integrals:                           0.22 MiB
  RI_INFO| Total memory for G0W0-(nm|K) integrals:                      0.98 MiB
  RI_INFO| Total memory for (ij|K) integrals:                           0.12 MiB
  RI_INFO| Total memory for (ab|K) integrals:                           0.42 MiB
  RI_INFO| Group size for frequency integration:                              48
  INTEG_INFO| Clenshaw-Curtius quadrature
  INTEG_INFO| Number of integration points:                                  100
  INTEG_INFO| Number of integration points per RPA group:                    100
  MATRIX_INFO| Number row processes:                                           8
  MATRIX_INFO| Number column processes:                                        6
  MATRIX_INFO| Row block size:                                                 7
  MATRIX_INFO| Column block size:                                             19
  INTEG_INFO| Scaling parameter:                                         0.20000
  INTEG_INFO| Started with Integration point   1 of 100
  INTEG_INFO| Started with Integration point   2 of 100
  INTEG_INFO| Started with Integration point   3 of 100
  INTEG_INFO| Started with Integration point   4 of 100
  INTEG_INFO| Started with Integration point   5 of 100
  INTEG_INFO| Started with Integration point   6 of 100
  INTEG_INFO| Started with Integration point   7 of 100
  INTEG_INFO| Started with Integration point   8 of 100
  INTEG_INFO| Started with Integration point   9 of 100
  INTEG_INFO| Started with Integration point  10 of 100
  INTEG_INFO| Started with Integration point  11 of 100
  INTEG_INFO| Started with Integration point  12 of 100
  INTEG_INFO| Started with Integration point  13 of 100
  INTEG_INFO| Started with Integration point  14 of 100
  INTEG_INFO| Started with Integration point  15 of 100
  INTEG_INFO| Started with Integration point  16 of 100
  INTEG_INFO| Started with Integration point  17 of 100
  INTEG_INFO| Started with Integration point  18 of 100
  INTEG_INFO| Started with Integration point  19 of 100
  INTEG_INFO| Started with Integration point  20 of 100
  INTEG_INFO| Started with Integration point  21 of 100
  INTEG_INFO| Started with Integration point  22 of 100
  INTEG_INFO| Started with Integration point  23 of 100
  INTEG_INFO| Started with Integration point  24 of 100
  INTEG_INFO| Started with Integration point  25 of 100
  INTEG_INFO| Started with Integration point  26 of 100
  INTEG_INFO| Started with Integration point  27 of 100
  INTEG_INFO| Started with Integration point  28 of 100
  INTEG_INFO| Started with Integration point  29 of 100
  INTEG_INFO| Started with Integration point  30 of 100
  INTEG_INFO| Started with Integration point  31 of 100
  INTEG_INFO| Started with Integration point  32 of 100
  INTEG_INFO| Started with Integration point  33 of 100
  INTEG_INFO| Started with Integration point  34 of 100
  INTEG_INFO| Started with Integration point  35 of 100
  INTEG_INFO| Started with Integration point  36 of 100
  INTEG_INFO| Started with Integration point  37 of 100
  INTEG_INFO| Started with Integration point  38 of 100
  INTEG_INFO| Started with Integration point  39 of 100
  INTEG_INFO| Started with Integration point  40 of 100
  INTEG_INFO| Started with Integration point  41 of 100
  INTEG_INFO| Started with Integration point  42 of 100
  INTEG_INFO| Started with Integration point  43 of 100
  INTEG_INFO| Started with Integration point  44 of 100
  INTEG_INFO| Started with Integration point  45 of 100
  INTEG_INFO| Started with Integration point  46 of 100
  INTEG_INFO| Started with Integration point  47 of 100
  INTEG_INFO| Started with Integration point  48 of 100
  INTEG_INFO| Started with Integration point  49 of 100
  INTEG_INFO| Started with Integration point  50 of 100
  INTEG_INFO| Started with Integration point  51 of 100
  INTEG_INFO| Started with Integration point  52 of 100
  INTEG_INFO| Started with Integration point  53 of 100
  INTEG_INFO| Started with Integration point  54 of 100
  INTEG_INFO| Started with Integration point  55 of 100
  INTEG_INFO| Started with Integration point  56 of 100
  INTEG_INFO| Started with Integration point  57 of 100
  INTEG_INFO| Started with Integration point  58 of 100
  INTEG_INFO| Started with Integration point  59 of 100
  INTEG_INFO| Started with Integration point  60 of 100
  INTEG_INFO| Started with Integration point  61 of 100
  INTEG_INFO| Started with Integration point  62 of 100
  INTEG_INFO| Started with Integration point  63 of 100
  INTEG_INFO| Started with Integration point  64 of 100
  INTEG_INFO| Started with Integration point  65 of 100
  INTEG_INFO| Started with Integration point  66 of 100
  INTEG_INFO| Started with Integration point  67 of 100
  INTEG_INFO| Started with Integration point  68 of 100
  INTEG_INFO| Started with Integration point  69 of 100
  INTEG_INFO| Started with Integration point  70 of 100
  INTEG_INFO| Started with Integration point  71 of 100
  INTEG_INFO| Started with Integration point  72 of 100
  INTEG_INFO| Started with Integration point  73 of 100
  INTEG_INFO| Started with Integration point  74 of 100
  INTEG_INFO| Started with Integration point  75 of 100
  INTEG_INFO| Started with Integration point  76 of 100
  INTEG_INFO| Started with Integration point  77 of 100
  INTEG_INFO| Started with Integration point  78 of 100
  INTEG_INFO| Started with Integration point  79 of 100
  INTEG_INFO| Started with Integration point  80 of 100
  INTEG_INFO| Started with Integration point  81 of 100
  INTEG_INFO| Started with Integration point  82 of 100
  INTEG_INFO| Started with Integration point  83 of 100
  INTEG_INFO| Started with Integration point  84 of 100
  INTEG_INFO| Started with Integration point  85 of 100
  INTEG_INFO| Started with Integration point  86 of 100
  INTEG_INFO| Started with Integration point  87 of 100
  INTEG_INFO| Started with Integration point  88 of 100
  INTEG_INFO| Started with Integration point  89 of 100
  INTEG_INFO| Started with Integration point  90 of 100
  INTEG_INFO| Started with Integration point  91 of 100
  INTEG_INFO| Started with Integration point  92 of 100
  INTEG_INFO| Started with Integration point  93 of 100
  INTEG_INFO| Started with Integration point  94 of 100
  INTEG_INFO| Started with Integration point  95 of 100
  INTEG_INFO| Started with Integration point  96 of 100
  INTEG_INFO| Started with Integration point  97 of 100
  INTEG_INFO| Started with Integration point  98 of 100
  INTEG_INFO| Started with Integration point  99 of 100
  INTEG_INFO| Started with Integration point 100 of 100
  PERFORMANCE| Average DGEMM flop rate (Gflops / MPI rank):                 0.15
  
  
  ******************************************************************************
  **                                                                          **
  **                        GW QUASIPARTICLE ENERGIES                         **
  **                                                                          **
  ******************************************************************************
   
   
  The GW quasiparticle energies are calculated according to: 
   
                      E_GW = E_SCF + Sigc(E_GW) + Sigx - vxc 
   
  Upper equation is solved self-consistently for E_GW, see Eq. (12) in J. Phys.
  Chem. Lett. 9, 306 (2018), doi: 10.1021/acs.jpclett.7b02740
  
  
  ------------
  G0W0 results
  ------------
   
  Molecular orbital   E_SCF (eV)       Sigc (eV)   Sigx-vxc (eV)       E_GW (eV)
     1 ( occ )         -532.6765         -3.3574        -36.5690       -572.6028
     2 ( occ )         -532.6672         -1.5412        -36.5746       -570.7829
     3 ( occ )         -287.5076         10.2154        -26.4818       -303.7740
     4 ( occ )          -35.0501          6.7387         -8.4983        -36.8098
     5 ( occ )          -33.7489          4.3603         -8.1849        -37.5735
     6 ( occ )          -16.8630          3.5909         -5.5538        -18.8260
     7 ( occ )          -15.9128          2.3785         -4.3621        -17.8964
     8 ( occ )          -15.9128          2.3785         -4.3621        -17.8964
     9 ( occ )          -15.3123          3.1688         -5.1531        -17.2966
    10 ( occ )          -11.6928          1.8679         -3.7620        -13.5869
    11 ( occ )          -11.6928          1.8679         -3.7620        -13.5869
    12 ( vir )           -0.0943         -0.6959          3.4494          2.6592
    13 ( vir )           -0.0560         -0.8623          5.6631          4.7449
    14 ( vir )           -0.0560         -0.8623          5.6631          4.7449
    15 ( vir )            2.8757         -0.2118          1.7149          4.3789
    16 ( vir )            2.8757         -0.2118          1.7149          4.3789
    17 ( vir )            3.4197         -0.3009          1.9662          5.0850
    18 ( vir )            5.8870         -1.2803          4.6387          9.2454
    19 ( vir )            9.9386         -0.7724          4.0149         13.1811
    20 ( vir )            9.9386         -0.7724          4.0149         13.1810
    21 ( vir )           12.9953         -1.0556          3.6598         15.5996
    22 ( vir )           14.7850         -0.8329          4.5186         18.4707
    23 ( vir )           14.7850         -0.8301          4.5186         18.4734
    24 ( vir )           14.8148         -0.6153          3.7191         17.9186
    25 ( vir )           16.4522         -1.9236          4.6087         19.1373
    26 ( vir )           18.5568         -1.3192          4.8755         22.1131
    27 ( vir )           19.5045         -0.7339          4.0187         22.7893
    28 ( vir )           19.5045         -0.7363          4.0187         22.7869
    29 ( vir )           24.9788         -4.9860          8.8498         28.8426
    30 ( vir )           29.6736         -2.2833          6.3099         33.7001
    31 ( vir )           29.6736         -2.2798          6.3099         33.7037
    32 ( vir )           36.5203         -2.6798          5.8626         39.7032
   
  G0W0 HOMO-LUMO gap (eV)                                                16.2462
  
  ------------------------------------------------------------------------------
  
 *******************************************************************************
 **                                                                           **
 **           Bethe Salpeter equation (BSE) for excitation energies           **
 **               solved without Tamm-Dancoff approximation (TDA)             **
 **                                                                           **
 *******************************************************************************
  
 BSE| No cutoff given for occupied orbitals
 BSE| No cutoff given for empty orbitals
 BSE| First occupied index                                                     1
 BSE| Last empty index (not MO index!)                                        21
 BSE| Energy of first occupied index [eV]                               -572.603
 BSE| Energy of last empty index [eV]                                     39.703
 BSE| Energy difference of first occupied index to HOMO [eV]             559.016
 BSE| Energy difference of last empty index to LUMO [eV]                  37.044
 BSE| Number of GW-corrected occupied MOs                                     11
 BSE| Number of GW-corrected empty MOs                                        21
 BSE|
 BSE| No truncation of BSE matrices applied
 BSE|
 BSE| Total peak memory estimate from BSE [GB]                         3.976E-03
 BSE| Peak memory estimate per MPI rank from BSE [GB]                      0.000
 BSE|
 BSE| Diagonalizing aux. matrix with size of A. This will take around 0.E+00 s.
 BSE| Diagonalizing C. This will take around 0.E+00 s.
 BSE|
 BSE|
 BSE| **************************************************************************
 BSE| *      Full ("ABBA") Bethe Salpeter equation (BSE) (i.e. without TDA)    *
 BSE| **************************************************************************
 BSE|
 BSE| The excitations are calculated by diagonalizing the BSE without the TDA:
 BSE|
 BSE|                |A B| |X^n|       |1  0| |X^n|
 BSE|                |B A| |Y^n| = Ω^n |0 -1| |Y^n|
 BSE|
 BSE| i.e. in index notation:
 BSE|
 BSE|   sum_jb ( A_ia,jb   X_jb^n + B_ia,jb   Y_jb^n ) = Ω^n X_ia^n
 BSE| - sum_jb ( B_ia,jb   X_jb^n + A_ia,jb   Y_jb^n ) = Ω^n Y_ia^n
 BSE|
 BSE|
 BSE| i,j:       occupied molecular orbitals, i.e. state in          [   1,  11]
 BSE| a,b:       unoccupied molecular orbitals, i.e. state in        [  12,  32]
 BSE| n:         Excitation index
 BSE|
 BSE| A_ia,jb = (ε_a-ε_i) δ_ij δ_ab + α * v_ia,jb - W_ij,ab
 BSE| B_ia,jb = α * v_ia,jb - W_ib,aj
 BSE|
 BSE| prelim Ref.: Eqs. (24-27),(30),(35)
 BSE| in PRB 92,045209 (2015); http://dx.doi.org/10.1103/PhysRevB.92.045209 .
 BSE|
 BSE| The BSE is solved for Ω^n and X_ia^n as a hermitian problem, e.g. Eq.(42)
 BSE| in PRB 92,045209 (2015); http://dx.doi.org/10.1103/PhysRevB.92.045209 .
 BSE|
 BSE| ε_...:                 GW quasiparticle energy
 BSE| δ_...:                 Kronecker delta
 BSE| α:                     spin-dependent factor
 BSE| v_...:                 Electron-hole exchange interaction
 BSE| W_... = 1/ϵ v_...:     Direct interaction screened by 
 BSE|                        dielectric function ϵ(ω=0)
 BSE|
 BSE|
 BSE| The spin-dependent factor is for the requested Singlet is α = 2.0
 BSE|
 BSE| Excitation energies from solving the BSE without the TDA:
 BSE|
 BSE|     Excitation n   Spin Config       TDA/ABBA   Excitation energy Ω^n (eV)
 BSE|                1       Singlet         -ABBA-                       8.3999
 BSE|                2       Singlet         -ABBA-                       8.3999
 BSE|                3       Singlet         -ABBA-                       8.5797
 BSE|                4       Singlet         -ABBA-                       8.9082
 BSE|                5       Singlet         -ABBA-                       8.9082
 BSE|                6       Singlet         -ABBA-                      11.5793
 BSE|                7       Singlet         -ABBA-                      12.2468
 BSE|                8       Singlet         -ABBA-                      12.3339
 BSE|                9       Singlet         -ABBA-                      12.3339
 BSE|               10       Singlet         -ABBA-                      12.4318
 BSE|               11       Singlet         -ABBA-                      12.6030
 BSE|               12       Singlet         -ABBA-                      12.8416
 BSE|               13       Singlet         -ABBA-                      12.8416
 BSE|               14       Singlet         -ABBA-                      12.9265
 BSE|               15       Singlet         -ABBA-                      12.9265
 BSE|               16       Singlet         -ABBA-                      13.1251
 BSE|               17       Singlet         -ABBA-                      13.1251
 BSE|               18       Singlet         -ABBA-                      13.1589
 BSE|               19       Singlet         -ABBA-                      13.1589
 BSE|               20       Singlet         -ABBA-                      13.8302
 BSE|               21       Singlet         -ABBA-                      14.5999
 BSE|               22       Singlet         -ABBA-                      15.2147
 BSE|               23       Singlet         -ABBA-                      15.2147
 BSE|               24       Singlet         -ABBA-                      15.3386
 BSE|               25       Singlet         -ABBA-                      15.3386
 BSE|
 BSE| Single-particle transitions are built up by (de-)excitations,
 BSE| which we denote by
 BSE|
 BSE|              =>        for excitations, i.e. entries of X_ia^n,
 BSE|              <=        for deexcitations, i.e. entries of Y_ia^n.
 BSE|
 BSE| The following single-particle transitions have significant contributions,
 BSE| i.e. |X_ia^n| > 0.100 or |Y_ia^n| > 0.100, respectively :
 BSE|         -- Quick reminder: HOMO i =   11 and LUMO a =   12 --
 BSE|
 BSE| Excitation n           i =>/<=     a      TDA/ABBA       |X_ia^n|/|Y_ia^n|
 BSE|
 BSE|            1          10    =>    12        -ABBA-                  0.6578
 BSE|            1          10    =>    18        -ABBA-                  0.1717
 BSE|            1          11    =>    12        -ABBA-                  0.1862
 BSE|
 BSE|            2          10    =>    12        -ABBA-                  0.1862
 BSE|            2          11    =>    12        -ABBA-                  0.6578
 BSE|            2          11    =>    18        -ABBA-                  0.1717
 BSE|
 BSE|            3          10    =>    13        -ABBA-                  0.4995
 BSE|            3          11    =>    14        -ABBA-                  0.4995
 BSE|
 BSE|            4          10    =>    13        -ABBA-                  0.4989
 BSE|            4          11    =>    14        -ABBA-                  0.4989
 BSE|
 BSE|            5          10    =>    14        -ABBA-                  0.4989
 BSE|            5          11    =>    13        -ABBA-                  0.4989
 BSE|
 BSE|            6           9    =>    12        -ABBA-                  0.4347
 BSE|            6           9    =>    18        -ABBA-                  0.1682
 BSE|            6          10    =>    14        -ABBA-                  0.3229
 BSE|            6          10    =>    15        -ABBA-                  0.1377
 BSE|            6          10    =>    16        -ABBA-                  0.1379
 BSE|            6          11    =>    13        -ABBA-                  0.3229
 BSE|            6          11    =>    15        -ABBA-                  0.1379
 BSE|            6          11    =>    16        -ABBA-                  0.1377
 BSE|
 BSE|            7           9    =>    12        -ABBA-                  0.3708
 BSE|            7          10    =>    15        -ABBA-                  0.2974
 BSE|            7          10    =>    16        -ABBA-                  0.2978
 BSE|            7          11    =>    15        -ABBA-                  0.2977
 BSE|            7          11    =>    16        -ABBA-                  0.2974
 BSE|
 BSE|            8          10    =>    15        -ABBA-                  0.3265
 BSE|            8          10    =>    16        -ABBA-                  0.3769
 BSE|            8          11    =>    15        -ABBA-                  0.3769
 BSE|            8          11    =>    16        -ABBA-                  0.3265
 BSE|
 BSE|            9          10    =>    15        -ABBA-                  0.3769
 BSE|            9          10    =>    16        -ABBA-                  0.3265
 BSE|            9          11    =>    15        -ABBA-                  0.3265
 BSE|            9          11    =>    16        -ABBA-                  0.3769
 BSE|
 BSE|           10          10    =>    15        -ABBA-                  0.3531
 BSE|           10          10    =>    16        -ABBA-                  0.3526
 BSE|           10          11    =>    15        -ABBA-                  0.3526
 BSE|           10          11    =>    16        -ABBA-                  0.3530
 BSE|
 BSE|           11           7    =>    13        -ABBA-                  0.4995
 BSE|           11           8    =>    14        -ABBA-                  0.4995
 BSE|
 BSE|           12           9    =>    14        -ABBA-                  0.6977
 BSE|
 BSE|           13           9    =>    13        -ABBA-                  0.6977
 BSE|
 BSE|           14           7    =>    12        -ABBA-                  0.3604
 BSE|           14           8    =>    12        -ABBA-                  0.5059
 BSE|           14           8    =>    18        -ABBA-                  0.1107
 BSE|           14          10    =>    17        -ABBA-                  0.1626
 BSE|           14          11    =>    17        -ABBA-                  0.2353
 BSE|
 BSE|           15           7    =>    12        -ABBA-                  0.5059
 BSE|           15           7    =>    18        -ABBA-                  0.1107
 BSE|           15           8    =>    12        -ABBA-                  0.3604
 BSE|           15          10    =>    17        -ABBA-                  0.2353
 BSE|           15          11    =>    17        -ABBA-                  0.1626
 BSE|
 BSE|           16           7    =>    12        -ABBA-                  0.2582
 BSE|           16          10    =>    17        -ABBA-                  0.6282
 BSE|           16          11    =>    17        -ABBA-                  0.1335
 BSE|
 BSE|           17           8    =>    12        -ABBA-                  0.2582
 BSE|           17          10    =>    17        -ABBA-                  0.1335
 BSE|           17          11    =>    17        -ABBA-                  0.6282
 BSE|
 BSE|           18           7    =>    13        -ABBA-                  0.4995
 BSE|           18           8    =>    14        -ABBA-                  0.4995
 BSE|
 BSE|           19           7    =>    14        -ABBA-                  0.4995
 BSE|           19           8    =>    13        -ABBA-                  0.4995
 BSE|
 BSE|           20           6    =>    12        -ABBA-                  0.6463
 BSE|           20           6    =>    18        -ABBA-                  0.1591
 BSE|           20           7    =>    14        -ABBA-                  0.1602
 BSE|           20           8    =>    13        -ABBA-                  0.1602
 BSE|
 BSE|           21           6    =>    17        -ABBA-                  0.1546
 BSE|           21           9    =>    12        -ABBA-                  0.3940
 BSE|           21           9    =>    18        -ABBA-                  0.1062
 BSE|           21          10    =>    14        -ABBA-                  0.3513
 BSE|           21          10    =>    15        -ABBA-                  0.1290
 BSE|           21          10    =>    16        -ABBA-                  0.1291
 BSE|           21          11    =>    13        -ABBA-                  0.3513
 BSE|           21          11    =>    15        -ABBA-                  0.1291
 BSE|           21          11    =>    16        -ABBA-                  0.1290
 BSE|
 BSE|           22          10    =>    12        -ABBA-                  0.1694
 BSE|           22          10    =>    18        -ABBA-                  0.6554
 BSE|           22          11    =>    18        -ABBA-                  0.1266
 BSE|
 BSE|           23          10    =>    18        -ABBA-                  0.1266
 BSE|           23          11    =>    12        -ABBA-                  0.1694
 BSE|           23          11    =>    18        -ABBA-                  0.6554
 BSE|
 BSE|           24           6    =>    13        -ABBA-                  0.5180
 BSE|           24           6    =>    14        -ABBA-                  0.4519
 BSE|           24           8    =>    12        -ABBA-                  0.1050
 BSE|
 BSE|           25           6    =>    13        -ABBA-                  0.4519
 BSE|           25           6    =>    14        -ABBA-                  0.5180
 BSE|           25           7    =>    12        -ABBA-                  0.1050
 BSE|
 BSE| Transition moments d_r^n (with r∈(x,y,z), in atomic units)
 BSE| and oscillator strength f^n of excitation level n are obtained from
 BSE|
 BSE|    d_r^n = sum_ia sqrt(2) < ψ_i | r | ψ_a > ( X_ia^n + Y_ia^n )
 BSE|
 BSE|        f^n = 2/3 * Ω^n sum_r∈(x,y,z) ( d_r^n )^2
 BSE|
 BSE| where we introduced
 BSE|
 BSE| ψ_i:   occupied molecular orbitals,
 BSE| ψ_a:   empty molecular orbitals and
 BSE|   r:   position operator.
 BSE|
 BSE| prelim Ref.: Eqs. (23), (24)
 BSE| in J. Chem. Phys. 152, 044105 (2020); https://doi.org/10.1063/1.5123290
 BSE|
 BSE| Optical properties from solving the BSE without the TDA:
 BSE|
 BSE|  Excitation n  TDA/ABBA        d_x^n     d_y^n     d_z^n Osc. strength f^n
 BSE|             1    -ABBA-       -0.000    -0.000     0.000             0.000
 BSE|             2    -ABBA-       -0.000     0.000     0.000             0.000
 BSE|             3    -ABBA-        0.000    -0.000     0.000             0.000
 BSE|             4    -ABBA-       -0.000     0.000     0.000             0.000
 BSE|             5    -ABBA-        0.000     0.000    -0.000             0.000
 BSE|             6    -ABBA-        0.777     0.000     0.000             0.171
 BSE|             7    -ABBA-        0.930     0.000     0.000             0.259
 BSE|             8    -ABBA-       -0.000     0.000     0.000             0.000
 BSE|             9    -ABBA-        0.000     0.000    -0.000             0.000
 BSE|            10    -ABBA-        0.000     0.000    -0.000             0.000
 BSE|            11    -ABBA-        0.000    -0.000     0.000             0.000
 BSE|            12    -ABBA-       -0.000    -0.000    -0.000             0.000
 BSE|            13    -ABBA-        0.000     0.000    -0.000             0.000
 BSE|            14    -ABBA-       -0.000     0.568    -0.435             0.162
 BSE|            15    -ABBA-       -0.000     0.435     0.568             0.162
 BSE|            16    -ABBA-        0.000     0.049    -0.304             0.031
 BSE|            17    -ABBA-       -0.000     0.304     0.049             0.031
 BSE|            18    -ABBA-        0.000     0.000     0.000             0.000
 BSE|            19    -ABBA-       -0.000     0.000    -0.000             0.000
 BSE|            20    -ABBA-        0.000    -0.000    -0.000             0.000
 BSE|            21    -ABBA-        1.669     0.000     0.000             0.996
 BSE|            22    -ABBA-        0.000    -0.000     0.000             0.000
 BSE|            23    -ABBA-        0.000     0.000     0.000             0.000
 BSE|            24    -ABBA-        0.000    -0.458     0.404             0.140
 BSE|            25    -ABBA-        0.000    -0.404    -0.458             0.140
 BSE|
 BSE| Check for Thomas-Reiche-Kuhn sum rule
 BSE|
 BSE|                              N_e = Σ_n f^n
 BSE|
 BSE| Number of electrons N_e:                                                22
 BSE| Sum over oscillator strengths Σ_n f^n :                              8.957
 BSE|
 BSE|
 BSE|
 BSE| The BSE was successfully calculated. Have a nice day!

  Total RI-RPA Time=                                                    0.546334


 ENERGY| Total FORCE_EVAL ( QS ) energy [hartree]           -187.868154347492691

 -------------------------------------------------------------------------------
 -                                                                             -
 -                                DBCSR STATISTICS                             -
 -                                                                             -
 -------------------------------------------------------------------------------
 COUNTER                                    TOTAL       BLAS       SMM       ACC
 flops    14 x    14 x    14                10976     100.0%      0.0%      0.0%     
 flops    14 x    14 x     9                14112     100.0%      0.0%      0.0%     
 flops     9 x    14 x    14                14112     100.0%      0.0%      0.0%     
 flops    14 x     9 x    14                14112     100.0%      0.0%      0.0%     
 flops     9 x    14 x     9                18144     100.0%      0.0%      0.0%     
 flops     9 x     9 x    14                18144     100.0%      0.0%      0.0%     
 flops    14 x     9 x     9                18144     100.0%      0.0%      0.0%     
 flops     9 x     9 x     9                23328     100.0%      0.0%      0.0%     
 flops    11 x    11 x    14               426888     100.0%      0.0%      0.0%     
 flops     9 x    14 x    32               483840     100.0%      0.0%      0.0%     
 flops    14 x     9 x    32               483840     100.0%      0.0%      0.0%     
 flops    11 x    11 x     9               548856     100.0%      0.0%      0.0%     
 flops    14 x    14 x    32               752640     100.0%      0.0%      0.0%     
 flops    11 x    21 x    14               814968     100.0%      0.0%      0.0%     
 flops     9 x     9 x    32               933120     100.0%      0.0%      0.0%     
 flops    14 x    21 x    14              1037232     100.0%      0.0%      0.0%     
 flops    11 x    21 x     9              1047816     100.0%      0.0%      0.0%     
 flops    14 x    11 x    14              1086624     100.0%      0.0%      0.0%     
 flops    14 x    21 x     9              1333584     100.0%      0.0%      0.0%     
 flops     9 x    21 x    14              1333584     100.0%      0.0%      0.0%     
 flops    14 x    11 x     9              1397088     100.0%      0.0%      0.0%     
 flops     9 x    11 x    14              1397088     100.0%      0.0%      0.0%     
 flops    21 x    21 x    14              1555848     100.0%      0.0%      0.0%     
 flops    14 x    32 x    14              1618176     100.0%      0.0%      0.0%     
 flops     9 x    21 x     9              1666980     100.0%      0.0%      0.0%     
 flops     9 x    11 x     9              1746360     100.0%      0.0%      0.0%     
 flops    21 x    21 x     9              2000376     100.0%      0.0%      0.0%     
 flops    14 x    32 x     9              2080512     100.0%      0.0%      0.0%     
 flops     9 x    32 x    14              2080512     100.0%      0.0%      0.0%     
 flops     9 x    32 x     9              2602368     100.0%      0.0%      0.0%     
 flops    32 x    32 x    14              3612672     100.0%      0.0%      0.0%     
 flops    32 x    32 x     9              4644864     100.0%      0.0%      0.0%     
 flops inhomo. stacks                           0       0.0%      0.0%      0.0%
 flops total                        36.816908E+06     100.0%      0.0%      0.0%
 flops max/rank                      1.744832E+06     100.0%      0.0%      0.0%
 matmuls inhomo. stacks                         0       0.0%      0.0%      0.0%
 matmuls total                               6433     100.0%      0.0%      0.0%
 number of processed stacks                  4473     100.0%      0.0%      0.0%
 average stack size                                     1.4       0.0       0.0
 marketing flops                    35.685248E+06
 -------------------------------------------------------------------------------
 # multiplications                             89
 max memory usage/rank               2.183365E+09
 # max total images/rank                        3
 # max 3D layers                                1
 # MPI messages exchanged                   62400
 MPI messages size (bytes):
  total size                         7.454720E+06
  min size                           0.000000E+00
  max size                           5.888000E+03
  average size                     119.466667E+00
 MPI breakdown and total messages size (bytes):
             size <=      128               60129                        0
       128 < size <=     8192                2271                  7454720
      8192 < size <=    32768                   0                        0
     32768 < size <=   131072                   0                        0
    131072 < size <=  4194304                   0                        0
   4194304 < size <= 16777216                   0                        0
  16777216 < size                               0                        0
 -------------------------------------------------------------------------------

 *** WARNING in dbcsr_mm.F:301 :: Using a non-square number of MPI ranks ***
 *** might lead to poor performance. Used ranks: 48 Suggested: 49 100    ***

 -------------------------------------------------------------------------------
 -                                                                             -
 -                      DBCSR MESSAGE PASSING PERFORMANCE                      -
 -                                                                             -
 -------------------------------------------------------------------------------
 ROUTINE             CALLS      AVE VOLUME [Bytes]
 MP_Bcast               33                     12.
 MP_Allreduce          557                     11.
 MP_Alltoall          2052                   5946.
 MP_ISend             3078                    312.
 MP_IRecv             2966                     73.
 -------------------------------------------------------------------------------

 -------------------------------------------------------------------------------
 -                                                                             -
 -                                DBM STATISTICS                               -
 -                                                                             -
 -------------------------------------------------------------------------------
    M  x    N  x    K                                          COUNT     PERCENT
    ?  x    ?  x    ?                                         327168      55.91%
   ??  x    ?  x    ?                                         258048      44.09%
 -------------------------------------------------------------------------------

 -------------------------------------------------------------------------------
 -                                                                             -
 -                                GRID STATISTICS                              -
 -                                                                             -
 -------------------------------------------------------------------------------
 LP    KERNEL             BACKEND                              COUNT     PERCENT
 2     collocate general  CPU                                   8784      20.09%
 2     integrate general  CPU                                   8784      20.09%
 2     collocate ortho    CPU                                   5734      13.12%
 2     integrate ortho    CPU                                   5734      13.12%
 3     collocate ortho    CPU                                   3050       6.98%
 3     integrate ortho    CPU                                   3050       6.98%
 1     collocate ortho    CPU                                   2318       5.30%
 1     integrate ortho    CPU                                   2318       5.30%
 4     collocate ortho    CPU                                   1525       3.49%
 4     integrate ortho    CPU                                   1525       3.49%
 0     collocate ortho    CPU                                    305       0.70%
 0     integrate ortho    CPU                                    305       0.70%
 0     collocate general  CPU                                    144       0.33%
 0     integrate general  CPU                                    144       0.33%
 -------------------------------------------------------------------------------

 MEMORY| Estimated peak process memory [MiB]                                2223

 -------------------------------------------------------------------------------
 ----                             MULTIGRID INFO                            ----
 -------------------------------------------------------------------------------
 count for grid        1:         858323          cutoff [a.u.]          250.00
 count for grid        2:         145783          cutoff [a.u.]           83.33
 count for grid        3:          88157          cutoff [a.u.]           27.78
 count for grid        4:           7681          cutoff [a.u.]            9.26
 total gridlevel count  :        1099944

 -------------------------------------------------------------------------------
 -                                                                             -
 -                         MESSAGE PASSING PERFORMANCE                         -
 -                                                                             -
 -------------------------------------------------------------------------------

 ROUTINE             CALLS      AVE VOLUME [Bytes]
 MP_Group              268
 MP_Bcast              925                 548639.
 MP_Allreduce         8819                   2398.
 MP_Sync               731
 MP_Alltoall          1690               53660981.
 MP_SendRecv          5837                 265157.
 MP_ISendRecv        11562                 134707.
 MP_Wait             21232
 MP_comm_split         114
 MP_ISend             8769                1545584.
 MP_IRecv             8868                1528330.
 -------------------------------------------------------------------------------


 -------------------------------------------------------------------------------
 -                                                                             -
 -                           R E F E R E N C E S                               -
 -                                                                             -
 -------------------------------------------------------------------------------
 
 CP2K version 2025.1 (Development Version), the CP2K developers group (2025).
 CP2K is freely available from https://www.cp2k.org/ .
 
 T. D. Kuehne, M. Iannuzzi, M. Del Ben, V. V. Rybkin, P. Seewald, F. Stein, T. 
 Laino, R. Z. Khaliullin, O. Schuett, F. Schiffmann, D. Golze, J. Wilhelm, S. 
 Chulkov, M. H. Bani-Hashemian, V. Weber, U. Borstnik, M. Taillefumier, A. S. 
 Jakobovits, A. Lazzaro, H. Pabst, T. Mueller, R. Schade, M. Guidon, S. 
 Andermatt, N. Holmberg, G. K. Schenter, A. Hehn, A. Bussy, F. Belleflamme, G. 
 Tabacchi, A. Gloess, M. Lass, I. Bethune, C. J. Mundy, C. Plessl, M. Watkins, 
 J. VandeVondele, M. Krack, J. Hutter.
 J. Chem. Phys. 152, 194103 (2020).
 CP2K: An electronic structure and molecular dynamics software package - 
 Quickstep: Efficient and accurate electronic structure calculations.
 https://doi.org/10.1063/5.0007045

 J. Wilhelm, D. Golze, L. Talirz, J. Hutter, C. A. Pignedoli.
 J. Phys. Chem. Lett. 9, 306-312 (2018).
 Toward GW calculations on thousands of atoms.
 https://doi.org/10.1021/acs.jpclett.7b02740

 J. Wilhelm, J. Hutter.
 Phys. Rev. B 95, 235123 (2017).
 Periodic GW calculations in the Gaussian and plane-waves scheme.
 https://doi.org/10.1103/PhysRevB.95.235123

 O. Schuett, P. Messmer, J. Hutter, J. VandeVondele.
 Electronic Structure Calculations on Graphics Processing Units, 173-190 (2016).
 GPU-Accelerated Sparse Matrix-Matrix Multiplication for Linear Scaling Density 
 Functional Theory.
 https://doi.org/10.1002/9781118670712.ch8

 J. Wilhelm, M. Del Ben, J. Hutter.
 J. Chem. Theory Comput. 12, 3623-3635 (2016).
 GW in the Gaussian and plane waves scheme with application to linear acenes.
 https://doi.org/10.1021/acs.jctc.6b00380

 M. Del Ben, O. Schuett, T. Wentz, P. Messmer, J. Hutter, J. VandeVondele.
 Comput. Phys. Commun. 187, 120-129 (2015).
 Enabling simulation at the fifth rung of DFT: Large scale RPA calculations with 
 excellent time to solution.
 https://doi.org/10.1016/j.cpc.2014.10.021

 J. Hutter, M. Iannuzzi, F. Schiffmann, J. VandeVondele.
 WIREs Comput Mol Sci. 4, 15-25 (2014).
 CP2K: atomistic simulations of condensed matter systems.
 https://doi.org/10.1002/wcms.1159

 U. Borstnik, J. VandeVondele, V. Weber, J. Hutter.
 Parallel Comput. 40, 47-58 (2014).
 Sparse matrix multiplication: The distributed block-compressed sparse row 
 library.
 https://doi.org/10.1016/j.parco.2014.03.012

 M. Del Ben, J. Hutter, J. VandeVondele.
 J. Chem. Theory Comput. 9, 2654-2671 (2013).
 Electron Correlation in the Condensed Phase from a Resolution of Identity 
 Approach Based on the Gaussian and Plane Waves Scheme.
 https://doi.org/10.1021/ct4002202

 M. Del Ben, J. Hutter, J. VandeVondele.
 J. Chem. Theory Comput. 8, 4177-4188 (2012).
 Second-Order Moller-Plesset Perturbation Theory in the Condensed Phase: An 
 Efficient and Massively Parallel Gaussian and Plane Waves Approach.
 https://doi.org/10.1021/ct300531w

 M. Guidon, J. Hutter, J. VandeVondele.
 J. Chem. Theory Comput. 5, 3010-3021 (2009).
 Robust Periodic Hartree-Fock Exchange for Large-Scale Simulations Using 
 Gaussian Basis Sets.
 https://doi.org/10.1021/ct900494g

 M. Guidon, F. Schiffmann, J. Hutter, J. VandeVondele.
 J. Chem. Phys. 128, 214104 (2008).
 Ab initio molecular dynamics using hybrid density functionals.
 https://doi.org/10.1063/1.2931945

 L. Genovese, T. Deutsch, S. Goedecker.
 J. Chem. Phys. 127, 054704 (2007).
 Efficient and accurate three-dimensional Poisson solver for surface problems.
 https://doi.org/10.1063/1.2754685

 J. VandeVondele, J. Hutter.
 J. Chem. Phys. 127, 114105 (2007).
 Gaussian basis sets for accurate calculations on molecular systems in gas and 
 condensed phases.
 https://doi.org/10.1063/1.2770708

 L. Genovese, T. Deutsch, A. Neelov, S. Goedecker, G. Beylkin.
 J. Chem. Phys. 125, 074105 (2006).
 Efficient solution of Poisson's equation with free boundary conditions.
 https://doi.org/10.1063/1.2335442

 M. Frigo, S. G. Johnson.
 Proc. IEEE 93, 216-231 (2005).
 The design and implementation of FFTW3.
 https://doi.org/10.1109/JPROC.2004.840301

 M. Krack, M. Parrinello.
 Phys. Chem. Chem. Phys. 2, 2105-2112 (2000).
 All-electron ab-initio molecular dynamics.
 https://doi.org/10.1039/b001167n

 G. Lippert, J. Hutter, M. Parrinello.
 Theor. Chem. Acc. 103, 124-140 (1999).
 The Gaussian and augmented-plane-wave density functional method for ab initio 
 molecular dynamics simulations.
 https://doi.org/10.1007/s002140050523

 J. P. Perdew, K. Burke, M. Ernzerhof.
 Phys. Rev. Lett. 77, 3865-3868 (1996).
 Generalized gradient approximation made simple.
 https://doi.org/10.1103/PhysRevLett.77.3865


 -------------------------------------------------------------------------------
 -                                                                             -
 -                                T I M I N G                                  -
 -                                                                             -
 -------------------------------------------------------------------------------
 SUBROUTINE                       CALLS  ASD         SELF TIME        TOTAL TIME
                                MAXIMUM       AVERAGE  MAXIMUM  AVERAGE  MAXIMUM
 CP2K                                 1  1.0    0.039    0.065  178.385  178.385
 qs_energies                          1  2.0    0.001    0.001  177.477  177.721
 scf_env_do_scf                       1  3.0    0.000    0.000  174.531  174.532
 scf_env_do_scf_inner_loop           60  4.0    0.002    0.004  174.531  174.532
 qs_ks_build_kohn_sham_matrix        61  7.0    0.009    0.011  132.957  132.960
 qs_ks_update_qs_env                 60  5.0    0.000    0.000  131.575  131.579
 rebuild_ks_matrix                   60  6.0    0.000    0.000  131.570  131.574
 fft_wrap_pw1pw2                   1272  9.9    0.028    0.036   72.506   74.270
 fft_wrap_pw1pw2_250                906 11.1    3.102    3.404   70.179   71.966
 fft3d_ps                          1272 11.9   28.542   31.848   58.459   60.149
 pw_poisson_solve                    61  8.0    1.083    1.187   53.134   53.162
 qs_vxc_create                       61  8.0    0.001    0.001   42.616   42.616
 xc_vxc_pw_create                    60  9.0    0.736    0.827   42.615   42.615
 ps_wavelet_solve                    61  9.0   27.457   31.032   35.114   35.322
 xc_pw_derive                       360 11.0    0.004    0.005   31.610   33.150
 mp_alltoall_d54                     61 10.0    5.025   27.368    5.025   27.368
 mp_alltoall_z22v                  1272 13.9   22.951   25.968   22.951   25.968
 xc_pw_divergence                    60 10.0    0.002    0.003   21.433   22.726
 qs_rho_update_rho_low               61  5.0    0.001    0.001   22.176   22.176
 calculate_rho_elec                  61  6.0    0.596    0.636   22.114   22.114
 xc_rho_set_and_dset_create          60 10.0    0.518    0.658   20.020   21.045
 gspace_mixing                       59  5.0    0.576    0.615   20.753   20.754
 yz_to_x                            607 12.8    2.034    2.420   14.139   16.851
 x_to_yz                            665 13.1    4.910    5.330   15.757   16.416
 density_rs2pw                       61  7.0    0.004    0.005   15.721   15.966
 broyden_mixing                      59  6.0   15.321   15.546   15.588   15.666
 sum_up_and_integrate                61  8.0    0.001    0.001   12.206   12.241
 integrate_v_rspace                  61  9.0    0.001    0.002   12.031   12.118
 potential_pw2rs                     61 10.0    0.031    0.033   11.622   11.718
 prepare_gapw_den                    61  8.0    0.001    0.001    9.174    9.316
 put_rho0_on_grid                    61  9.0    0.601    0.648    8.590    8.732
 transfer_pw2rs                     306 10.6    0.004    0.006    8.288    8.403
 transfer_rs2pw                     306  8.4    0.008    0.011    7.370    7.530
 mp_waitany                        8096 11.5    6.390    6.958    6.390    6.958
 grid_collocate_task_list            61  7.0    5.581    5.859    5.581    5.859
 hfx_ks_matrix                       61  8.0    0.002    0.003    5.653    5.700
 integrate_four_center               61  9.0    1.144    2.795    5.650    5.697
 transfer_pw2rs_250                 123 10.9    1.731    1.860    5.385    5.602
 mp_alltoall_d11v                  1120  9.4    2.772    5.515    2.772    5.515
 transfer_rs2pw_250                 123 10.0    1.919    2.040    5.082    5.260
 mp_alltoall_d45                     62 10.0    2.446    4.856    2.446    4.856
 pw_scatter_p                       665 12.1    4.752    4.812    4.752    4.812
 xc_functional_eval                 180 10.9    0.001    0.001    3.742    4.550
 pbe_lda_eval                       180 11.9    3.741    4.549    3.741    4.549
 pw_gather_p                        607 11.8    3.988    4.528    3.988    4.528
 mp_sync                            731  9.4    3.019    4.193    3.019    4.193
 pw_derive                          543 11.3    3.480    3.731    3.480    3.731
 integrate_vhg0_rspace               61  8.0    0.024    0.031    3.525    3.539
 mp_sum_d                          1704  6.1    2.415    3.210    2.415    3.210
 mp2_main                             1  3.0    0.000    0.000    2.127    2.371
 cp2k_distribution_to_z_slices       61  9.0    1.143    1.201    2.203    2.350
 pw_copy                            910 10.6    2.078    2.211    2.078    2.211
 fft_wrap_pw1pw2_90                 122 10.5    0.090    0.110    1.867    2.132
 pw_poisson_set                      62  8.9    0.002    0.003    1.941    1.970
 integrate_four_center_main          61 10.0    0.033    0.727    0.071    1.588
 rs_grid_zero                       307 11.1    1.522    1.560    1.522    1.560
 transfer_pw2rs_90                   61 12.0    0.307    0.381    1.203    1.538
 mp_waitall_1                     18834 12.0    0.869    1.495    0.869    1.495
 pw_axpy                            605  9.3    1.351    1.454    1.351    1.454
 pw_copy_to_array                   607 11.8    1.256    1.390    1.256    1.390
 compute_vec_Sigma_x_minus_vxc_       1  4.0    0.000    0.000    1.390    1.390
 transfer_pw2rs_30                   61 12.0    0.823    0.894    1.264    1.388
 calculate_vxc_atom                  61  8.0    0.020    0.099    1.193    1.193
 pw_poisson_rebuild                  61  9.0    0.000    0.000    1.112    1.141
 ps_wavelet_create                    1 10.0    0.000    0.000    1.112    1.141
 RS_z_slice_distribution              1 11.0    0.994    1.048    1.112    1.141
 transfer_rs2pw_90                   61  9.0    0.273    0.311    0.991    1.084
 pw_integral_ab_c1d_c1d_gs           61  9.0    0.895    0.902    0.986    1.076
 gaVxcgb_GC                          60  9.0    0.050    1.052    0.050    1.052
 transfer_rs2pw_30                   61  9.0    0.476    0.504    0.982    0.999
 pw_copy_from_array                 665 12.1    0.814    0.995    0.814    0.995
 calc_screening_functions             1 10.0    0.610    0.629    0.930    0.950
 integrate_four_center_bin         4847 11.0    0.038    0.860    0.038    0.860
 mp_sum_dm                          614  7.6    0.464    0.825    0.464    0.825
 mp_sendrecv_dv                    5734 10.0    0.712    0.744    0.712    0.744
 mp_isend_dv                       7774 11.7    0.415    0.691    0.415    0.691
 pw_zero                            362 10.3    0.577    0.644    0.577    0.644
 init_scf_run                         1  3.0    0.000    0.000    0.608    0.608
 powell_optimize                 239409 11.0    0.595    0.606    0.595    0.606
 scf_env_initial_rho_setup            1  4.0    0.000    0.000    0.601    0.601
 calculate_rho_atom                 122  9.0    0.183    0.558    0.183    0.558
 mp2_gpw_main                         1  4.0    0.000    0.000    0.536    0.546
 mp_irecv_dm3                      2208 11.5    0.280    0.524    0.280    0.524
 mp_sum_dv                         3612 11.5    0.441    0.483    0.441    0.483
 transfer_pw2rs_10                   61 12.0    0.209    0.219    0.432    0.467
 qs_scf_new_mos                      60  5.0    0.001    0.001    0.456    0.463
 calc_pair_dist_radii                 1 10.0    0.179    0.183    0.453    0.459
 qs_init_subsys                       1  2.0    0.004    0.004    0.435    0.435
 qs_env_setup                         1  3.0    0.000    0.000    0.427    0.428
 qs_env_rebuild_pw_env                2  3.5    0.000    0.000    0.426    0.427
 pw_env_rebuild                       1  5.0    0.001    0.001    0.426    0.426
 mp_sum_i                            19  9.5    0.245    0.426    0.245    0.426
 mp2_main_alloc_hfx                   1  4.0    0.181    0.425    0.181    0.425
 restraint_control                    1  2.0    0.000    0.000    0.244    0.425
 mp_isend_dm3                      2208 11.5    0.228    0.423    0.228    0.423
 rs_gather_matrices                  61 10.0    0.001    0.002    0.374    0.418
 pw_grid_setup                        4  6.0    0.000    0.000    0.416    0.416
 pw_grid_setup_internal               4  7.0    0.010    0.013    0.416    0.416
 rpa_ri_compute_en                    1  5.0    0.000    0.000    0.405    0.405
 mp_isendrecv_dv                  11468 12.0    0.186    0.404    0.186    0.404
 rpa_num_int                          1  6.0    0.001    0.001    0.402    0.402
 grid_integrate_task_list            61 10.0    0.033    0.389    0.033    0.389
 Vh_1c_gg_integrals                  61  8.0    0.007    0.092    0.249    0.378
 fft_wrap_pw1pw2_30                 122 10.5    0.015    0.017    0.347    0.360
 mp_max_i                           554  2.8    0.203    0.330    0.203    0.330
 scale_and_distribute               122 10.0    0.304    0.326    0.304    0.326
 pw_grid_sort                         4  8.0    0.223    0.227    0.318    0.322
 transfer_rs2pw_10                   61  9.0    0.099    0.106    0.306    0.312
 cp_fm_syevd                         66  7.0    0.000    0.001    0.275    0.276
 eigensolver_symm                    61  6.0    0.002    0.002    0.251    0.252
 cp_fm_redistribute_end              66  8.0    0.129    0.232    0.130    0.233
 cp_fm_syevd_base                    66  8.0    0.102    0.204    0.102    0.204
 compute_GW_self_energy             100  7.0    0.001    0.001    0.163    0.180
 pw_scale                           241  9.5    0.146    0.175    0.146    0.175
 mixing_init                          1  5.0    0.145    0.151    0.151    0.152
 calculate_dm_sparse                 60  6.0    0.000    0.000    0.143    0.144
 cp_dbcsr_plus_fm_fm_t               60  7.0    0.001    0.001    0.142    0.144
 rpa_num_int_RPA_matrix_operati     100  7.0    0.001    0.002    0.143    0.143
 parallel_gemm_fm                   340  8.6    0.000    0.000    0.128    0.133
 parallel_gemm_fm_gemm              340  9.6    0.000    0.001    0.127    0.133
 cp_fm_gemm                         340 10.6    0.127    0.132    0.127    0.132
 create_qs_kind_set                   1  2.0    0.000    0.000    0.128    0.128
 read_qs_kind                         2  3.0    0.056    0.060    0.128    0.128
 mp2_ri_gpw_compute_in                1  5.0    0.000    0.000    0.114    0.114
 compute_GW_self_energy_deep        100  8.0    0.027    0.046    0.095    0.112
 mp2_ri_gpw_compute_in_loop           1  6.0    0.000    0.000    0.110    0.110
 dbcsr_multiply_generic              89  8.1    0.004    0.004    0.106    0.109
 scf_post_calculation_gpw             1  3.0    0.000    0.000    0.108    0.108
 write_available_results              1  4.0    0.000    0.000    0.107    0.107
 write_mo_free_results                1  5.0    0.013    0.014    0.107    0.107
 fft_wrap_pw1pw2_10                 122 10.5    0.003    0.003    0.086    0.102
 qs_energies_init_hamiltonians        1  3.0    0.000    0.000    0.102    0.102
 contract_B_L                         4  7.0    0.001    0.001    0.093    0.100
 build_core_hamiltonian_matrix        1  4.0    0.000    0.000    0.098    0.098
 sort_shells                          4  9.0    0.095    0.097    0.095    0.097
 overlap_condnum                      1  5.0    0.000    0.000    0.095    0.096
 update_ks_atom                      61  8.0    0.005    0.008    0.084    0.094
 calc_mat_Q                         100  8.0    0.000    0.000    0.088    0.091
 contract_S_to_Q                    100  9.0    0.000    0.000    0.087    0.090
 mp_bcast_dm                        366  9.0    0.079    0.090    0.079    0.090
 dbcsr_complete_redistribute        207  8.4    0.008    0.011    0.088    0.089
 xc_pw_smooth                        60 10.0    0.000    0.000    0.063    0.088
 copy_dbcsr_to_fm                    83  6.5    0.002    0.002    0.076    0.082
 parser_read_line                 10561  4.0    0.004    0.004    0.072    0.076
 start_bse_calculation                1  7.0    0.000    0.000    0.074    0.075
 parser_read_line_low                16  5.0    0.008    0.027    0.068    0.073
 arnoldi_conjugate_gradient           7  6.0    0.002    0.003    0.071    0.071
 broadcast_input_information         16  6.0    0.018    0.020    0.060    0.069
 cp_fm_to_fm_submat_general         112 10.1    0.063    0.067    0.063    0.067
 dbt_total                            8  8.0    0.000    0.000    0.064    0.064
 calculate_rho_atom_coeff            61  6.0    0.006    0.013    0.061    0.062
 cp_fm_cholesky_invert              101  8.0    0.059    0.061    0.059    0.061
 dbt_contract                         4  9.0    0.001    0.001    0.060    0.060
 mp_sum_l                           867  5.8    0.043    0.054    0.043    0.054
 make_m2s                           178  9.1    0.003    0.003    0.051    0.053
 offload_free_buffer                 69  8.3    0.039    0.053    0.039    0.053
 pw_grid_assign                       4  8.0    0.050    0.051    0.051    0.053
 copy_fm_to_dbcsr                   124  8.1    0.000    0.001    0.049    0.051
 compute_Erpa_by_freq_int           100  8.0    0.001    0.001    0.049    0.049
 cp_fm_cholesky_decompose           102  9.0    0.047    0.047    0.047    0.047
 calculate_hirshfeld_normalizat       1  6.0    0.001    0.002    0.046    0.047
 hirshfeld_integration                1  6.0    0.001    0.001    0.047    0.047
 cp_fm_redistribute_start            66  8.0    0.035    0.036    0.043    0.045
 dbt_tas_multiply                     8 11.5    0.000    0.000    0.045    0.045
 dbt_tas_total                        8 12.5    0.001    0.001    0.045    0.045
 dbcsr_desymmetrize_deep             85  7.4    0.002    0.002    0.038    0.044
 mp_cart_create                     353 10.5    0.037    0.043    0.037    0.044
 diagonalize_C                        1  8.0    0.000    0.000    0.043    0.043
 dbcsr_sym_matrix_vector_mult       274  7.0    0.004    0.005    0.034    0.043
 mp_irecv_dv                       7646 11.7    0.023    0.038    0.023    0.038
 multiply_cannon                     89  9.1    0.007    0.007    0.036    0.038
 integrate_four_center_load          61 10.0    0.000    0.001    0.026    0.038
 hfx_load_balance                     1 11.0    0.000    0.000    0.026    0.037
 vxc_of_r_new                       120  9.0    0.000    0.005    0.002    0.035
 dbcsr_finalize                    1585 10.7    0.006    0.011    0.019    0.035
 hfx_load_balance_range               1 12.0    0.000    0.000    0.022    0.034
 mp_bcast_i_src                      64  7.0    0.024    0.034    0.024    0.034
 cp_fm_power                          2  7.5    0.000    0.001    0.032    0.032
 mp_comm_split_direct                48 14.5    0.020    0.030    0.020    0.030
 dbcsr_add_d                        453  7.3    0.001    0.001    0.004    0.030
 dbcsr_add_anytype                  453  8.3    0.001    0.004    0.004    0.029
 integrate_four_center_getP          61 10.0    0.005    0.005    0.022    0.028
 dbt_pgrid_create_expert             84 10.8    0.000    0.000    0.022    0.028
 mp_alltoall_i11v                   706  9.3    0.027    0.027    0.027    0.027
 mp_alltoall_i22                    292  9.1    0.018    0.025    0.018    0.025
 mp2_main_free_hfx                    1  4.0    0.010    0.025    0.010    0.025
 multiply_cannon_loop                89 10.1    0.005    0.005    0.021    0.024
 make_images                        178 10.1    0.005    0.005    0.023    0.024
 mp_bcast_am_src                     16  7.0    0.014    0.016    0.018    0.024
 calculate_rho0_atom                122  9.0    0.023    0.023    0.023    0.023
 postprocess_bse                      1  9.0    0.000    0.000    0.022    0.023
 create_hermitian_form_of_ABBA        1  8.0    0.000    0.000    0.022    0.022
 mp_maxloc_dv                      1515  1.0    0.020    0.022    0.020    0.022
 pw_grid_remap                        4  8.0    0.008    0.008    0.018    0.022
 hybrid_alltoall_any                263 10.9    0.002    0.002    0.020    0.021
 dbt_tas_distribution_new            98 11.9    0.012    0.012    0.019    0.019
 dbt_distribution_new_expert         76 10.1    0.001    0.001    0.019    0.019
 integrate_four_center_dist_KS       61 10.0    0.005    0.005    0.019    0.019
 dbt_tas_estimate_result_nze          4 12.0    0.000    0.000    0.019    0.019
 dbcsr_crop_matrix                  240 10.0    0.002    0.002    0.017    0.018
 -------------------------------------------------------------------------------

 The number of warnings for this run is : 1
 
 -------------------------------------------------------------------------------
  **** **** ******  **  PROGRAM ENDED AT                 2025-03-26 05:59:17.522
 ***** ** ***  *** **   PROGRAM RAN ON                              i05r08c01s04
 **    ****   ******    PROGRAM RAN BY                                   di38fab
 ***** **    ** ** **   PROGRAM PROCESS ID                               3593914
  **** **  *******  **  PROGRAM STOPPED IN /hppfs/scratch/04/di38fab/05_MOL/W4-1
                                           1+ALK/co2/SZV/GW+BSE/1e-4
