SIRIUS 7.5.2, git hash: https://api.github.com/repos/electronic-structure/SIRIUS/git/ref/tags/v7.5.2
 DBCSR| CPU Multiplication driver                                           XSMM (U)
 DBCSR| Multrec recursion limit                                              512 (U)
 DBCSR| Multiplication stack size                                           1000 (D)
 DBCSR| Maximum elements for images                                    UNLIMITED (U)
 DBCSR| Multiplicative factor virtual images                                   1 (U)
 DBCSR| Use multiplication densification                                       T (D)
 DBCSR| Multiplication size stacks                                             3 (U)
 DBCSR| Use memory pool for CPU allocation                                     F (U)
 DBCSR| Number of 3D layers                                               SINGLE (U)
 DBCSR| Use MPI memory allocation                                              F (U)
 DBCSR| Use RMA algorithm                                                      F (U)
 DBCSR| Use Communication thread                                               T (U)
 DBCSR| Communication thread load                                             75 (D)
 DBCSR| MPI: My process id                                                     0
 DBCSR| MPI: Number of processes                                             192
 DBCSR| OMP: Current number of threads                                         4
 DBCSR| OMP: Max number of threads                                             4
 DBCSR| Split modifier for TAS multiplication algorithm                  1.0E+00 (U)


  **** **** ******  **  PROGRAM STARTED AT               2025-03-15 09:30:30.566
 ***** ** ***  *** **   PROGRAM STARTED ON                              n2cn0253
 **    ****   ******    PROGRAM STARTED BY                              metdyn02
 ***** **    ** ** **   PROGRAM PROCESS ID                                155365
  **** **  *******  **  PROGRAM STARTED IN /scratch/hpc-prf-metdyn/metdyn02_Remi
                                           /10_MOL/05_MOL/aUKBqsEOTmq69kFe5R_nOg
                                           /5k_set_final_qzvp/XETJIQ/SZV/GW+BSE/
                                           RILIM

 CP2K| version string:                 CP2K version 2025.1 (Development Version)
 CP2K| source code revision number:                                  git:f0c7327
 CP2K| cp2kflags: omp libint fftw3 libxc libgrpp elpa parallel scalapack mpi_f08
 CP2K|             cosma xsmm plumed2 spglib sirius libvori libbqb libvdwxc hdf5
 CP2K| is freely available from                            https://www.cp2k.org/
 CP2K| Program compiled at                          Wed Mar 12 18:25:30 CET 2025
 CP2K| Program compiled on                                              n2login1
 CP2K| Program compiled for                                                local
 CP2K| Data directory path    /opt/software/pc2/EB-SW/software/CP2K/2024.1-foss-
 CP2K| Input file name                                                    GW.inp

 GLOBAL| Force Environment number                                              1
 GLOBAL| Basis set file name            /scratch/hpc-prf-metdyn/metdyn02_Remi/BA
 GLOBAL| Potential file name            /pc2/groups/hpc-prf-metdyn/metdyn02_Remi
 GLOBAL| MM Potential file name                                     MM_POTENTIAL
 GLOBAL| Coordinate file name                                      __STD_INPUT__
 GLOBAL| Method name                                                        CP2K
 GLOBAL| Project name                                                       MoS2
 GLOBAL| Run type                                                         ENERGY
 GLOBAL| FFT library                                                       FFTW3
 GLOBAL| Diagonalization library                                            ELPA
 GLOBAL| DGEMM library                                                      BLAS
 GLOBAL| Minimum number of eigenvectors for ELPA usage                        16
 GLOBAL| Orthonormality check for eigenvectors                          DISABLED
 GLOBAL| Matrix multiplication library                                     COSMA
 GLOBAL| All-to-all communication in single precision                          F
 GLOBAL| FFTs using library dependent lengths                                  F
 GLOBAL| Grid backend                                                       AUTO
 GLOBAL| Global print level                                               MEDIUM
 GLOBAL| MPI I/O enabled                                                       T
 GLOBAL| Total number of message passing processes                           192
 GLOBAL| Number of threads for this process                                    4
 GLOBAL| This output is from process                                           0
 GLOBAL| OpenMP stack size per thread (OMP_STACKSIZE)                    default
 GLOBAL| CPU model name                          AMD EPYC 7763 64-Core Processor
 GLOBAL| CPUID                                                              1002

 MEMORY| system memory details [Kb]
 MEMORY|                        rank 0           min           max       average
 MEMORY| MemTotal            263899264     263899260     263899264     263899262
 MEMORY| MemFree             243712556     240643840     243712556     242428235
 MEMORY| Buffers                226232        109500        249812        209106
 MEMORY| Cached                6601692       6601692       9532184       7665419
 MEMORY| Slab                  2205928       2173476       2605756       2337770
 MEMORY| SReclaimable           468620        350956        879192        523766
 MEMORY| MemLikelyFree       251009100     250484796     251043264     250826527


 *** Fundamental physical constants (SI units) ***

 *** Literature: B. J. Mohr and B. N. Taylor,
 ***             CODATA recommended values of the fundamental physical
 ***             constants: 2006, Web Version 5.1
 ***             http://physics.nist.gov/constants

 Speed of light in vacuum [m/s]                             2.99792458000000E+08
 Magnetic constant or permeability of vacuum [N/A**2]       1.25663706143592E-06
 Electric constant or permittivity of vacuum [F/m]          8.85418781762039E-12
 Planck constant (h) [J*s]                                  6.62606896000000E-34
 Planck constant (h-bar) [J*s]                              1.05457162825177E-34
 Elementary charge [C]                                      1.60217648700000E-19
 Electron mass [kg]                                         9.10938215000000E-31
 Electron g factor [ ]                                     -2.00231930436220E+00
 Proton mass [kg]                                           1.67262163700000E-27
 Fine-structure constant                                    7.29735253760000E-03
 Rydberg constant [1/m]                                     1.09737315685270E+07
 Avogadro constant [1/mol]                                  6.02214179000000E+23
 Boltzmann constant [J/K]                                   1.38065040000000E-23
 Atomic mass unit [kg]                                      1.66053878200000E-27
 Bohr radius [m]                                            5.29177208590000E-11

 *** Conversion factors ***

 [u] -> [a.u.]                                              1.82288848426455E+03
 [Angstrom] -> [Bohr] = [a.u.]                              1.88972613288564E+00
 [a.u.] = [Bohr] -> [Angstrom]                              5.29177208590000E-01
 [a.u.] -> [s]                                              2.41888432650478E-17
 [a.u.] -> [fs]                                             2.41888432650478E-02
 [a.u.] -> [J]                                              4.35974393937059E-18
 [a.u.] -> [N]                                              8.23872205491840E-08
 [a.u.] -> [K]                                              3.15774647902944E+05
 [a.u.] -> [kJ/mol]                                         2.62549961709828E+03
 [a.u.] -> [kcal/mol]                                       6.27509468713739E+02
 [a.u.] -> [Pa]                                             2.94210107994716E+13
 [a.u.] -> [bar]                                            2.94210107994716E+08
 [a.u.] -> [atm]                                            2.90362800883016E+08
 [a.u.] -> [eV]                                             2.72113838565563E+01
 [a.u.] -> [Hz]                                             6.57968392072181E+15
 [a.u.] -> [1/cm] (wave numbers)                            2.19474631370540E+05
 [a.u./Bohr**2] -> [1/cm]                                   5.14048714338585E+03
 

 CELL_TOP| Volume [angstrom^3]:                                     27000.000000
 CELL_TOP| Vector a [angstrom    30.000     0.000     0.000   |a| =    30.000000
 CELL_TOP| Vector b [angstrom     0.000    30.000     0.000   |b| =    30.000000
 CELL_TOP| Vector c [angstrom     0.000     0.000    30.000   |c| =    30.000000
 CELL_TOP| Angle (b,c), alpha [degree]:                                90.000000
 CELL_TOP| Angle (a,c), beta  [degree]:                                90.000000
 CELL_TOP| Angle (a,b), gamma [degree]:                                90.000000
 CELL_TOP| Numerically orthorhombic:                                         YES
 CELL_TOP| Periodicity                                                      NONE

 GENERATE|  Preliminary Number of Bonds generated:                             0
 GENERATE|  Achieved consistency in connectivity generation.

 CELL| Volume [angstrom^3]:                                         27000.000000
 CELL| Vector a [angstrom]:      30.000     0.000     0.000   |a| =    30.000000
 CELL| Vector b [angstrom]:       0.000    30.000     0.000   |b| =    30.000000
 CELL| Vector c [angstrom]:       0.000     0.000    30.000   |c| =    30.000000
 CELL| Angle (b,c), alpha [degree]:                                    90.000000
 CELL| Angle (a,c), beta  [degree]:                                    90.000000
 CELL| Angle (a,b), gamma [degree]:                                    90.000000
 CELL| Numerically orthorhombic:                                             YES
 CELL| Periodicity                                                          NONE

 CELL_REF| Volume [angstrom^3]:                                     27000.000000
 CELL_REF| Vector a [angstrom    30.000     0.000     0.000   |a| =    30.000000
 CELL_REF| Vector b [angstrom     0.000    30.000     0.000   |b| =    30.000000
 CELL_REF| Vector c [angstrom     0.000     0.000    30.000   |c| =    30.000000
 CELL_REF| Angle (b,c), alpha [degree]:                                90.000000
 CELL_REF| Angle (a,c), beta  [degree]:                                90.000000
 CELL_REF| Angle (a,b), gamma [degree]:                                90.000000
 CELL_REF| Numerically orthorhombic:                                         YES
 CELL_REF| Periodicity                                                      NONE

 *******************************************************************************
 *******************************************************************************
 **                                                                           **
 **     #####                         ##              ##                      **
 **    ##   ##            ##          ##              ##                      **
 **   ##     ##                       ##            ######                    **
 **   ##     ##  ##   ##  ##   #####  ##  ##   ####   ##    #####    #####    **
 **   ##     ##  ##   ##  ##  ##      ## ##   ##      ##   ##   ##  ##   ##   **
 **   ##  ## ##  ##   ##  ##  ##      ####     ###    ##   ######   ######    **
 **    ##  ###   ##   ##  ##  ##      ## ##      ##   ##   ##       ##        **
 **     #######   #####   ##   #####  ##  ##  ####    ##    #####   ##        **
 **           ##                                                    ##        **
 **                                                                           **
 **                                                ... make the atoms dance   **
 **                                                                           **
 **            Copyright (C) by CP2K developers group (2000-2025)             **
 **                      J. Chem. Phys. 152, 194103 (2020)                    **
 **                                                                           **
 *******************************************************************************

 DFT| Spin restricted Kohn-Sham (RKS) calculation                            RKS
 DFT| Multiplicity                                                             1
 DFT| Number of spin states                                                    1
 DFT| Charge                                                                   0
 DFT| Self-interaction correction (SIC)                                       NO
 DFT| Cutoffs: density                                              1.000000E-10
 DFT|          gradient                                             1.000000E-10
 DFT|          tau                                                  1.000000E-10
 DFT|          cutoff_smoothing_range                               0.000000E+00
 DFT| XC density smoothing                                                  NONE
 DFT| XC derivatives                                                          PW

 FUNCTIONAL| PBE:
 FUNCTIONAL| J.P.Perdew, K.Burke, M.Ernzerhof, Phys. Rev. Letter, vol. 77, n 18,
 FUNCTIONAL|  pp. 3865-3868, (1996)sx=0.750sc=1.000{spin unpolarized}           


 QS| Method:                                                                GAPW
 QS| Density plane wave grid type                        NON-SPHERICAL FULLSPACE
 QS| Number of grid levels:                                                    4
 QS| Density cutoff [a.u.]:                                                250.0
 QS| Multi grid cutoff [a.u.]: 1) grid level                               250.0
 QS|                           2) grid level                                83.3
 QS|                           3) grid level                                27.8
 QS|                           4) grid level                                 9.3
 QS| Grid level progression factor:                                          3.0
 QS| Relative density cutoff [a.u.]:                                        50.0
 QS| Interaction thresholds: eps_pgf_orb:                                1.0E-12
 QS|                         eps_filter_matrix:                          0.0E+00
 QS|                         eps_core_charge:                            1.0E-14
 QS|                         eps_rho_gspace:                             1.0E-12
 QS|                         eps_rho_rspace:                             1.0E-12
 QS|                         eps_gvg_rspace:                             1.0E-06
 QS|                         eps_ppl:                                    1.0E-02
 QS|                         eps_ppnl:                                   1.0E-08
 QS| GAPW|      One center basis from orbital basis primitives
 QS| GAPW|                   eps_fit:                                    1.0E-04
 QS| GAPW|                   eps_iso:                                    1.0E-12
 QS| GAPW|                   eps_svd:                                    1.0E-08
 QS| GAPW|                   eps_cpc:                                    1.0E-12
 QS| GAPW|   atom-r-grid: quadrature:                                     GC_LOG
 QS| GAPW|      atom-s-grid:  max l :                                          4
 QS| GAPW|      max_l_rho0 :                                                   2


 ATOMIC KIND INFORMATION

  1. Atomic kind: H                                     Number of atoms:       8

     Orbital Basis Set                                         aug-SZV-MOLOPT-ae

       Number of orbital shell sets:                                           1
       Number of orbital shells:                                               4
       Number of primitive Cartesian functions:                                7
       Number of Cartesian basis functions:                                    6
       Number of spherical basis functions:                                    6
       Norm type:                                                              2

       Normalised Cartesian orbitals:

                        Set   Shell   Orbital            Exponent    Coefficient

                          1       1    1s                0.065428       0.000000
                                                         0.100112       0.016532
                                                         0.243077       0.102760
                                                         0.625955       0.185857
                                                         1.822143       0.188385
                                                         6.513144       0.143430
                                                        35.523221       0.095030

                          1       2    2s                0.065428       0.083549
                                                         0.100112       0.009605
                                                         0.243077       0.002524
                                                         0.625955       0.013457
                                                         1.822143       0.000000
                                                         6.513144       0.000000
                                                        35.523221       0.000000

                          1       3    3s                0.065428       0.037407
                                                         0.100112      -0.169070
                                                         0.243077      -0.018899
                                                         0.625955       0.012806
                                                         1.822143       0.000000
                                                         6.513144       0.000000
                                                        35.523221       0.000000

                          1       4    2px               0.065428       0.059908
                                                         0.100112      -0.023770
                                                         0.243077       0.000032
                                                         0.625955       0.017779
                                                         1.822143       0.000000
                                                         6.513144       0.000000
                                                        35.523221       0.000000
                          1       4    2py               0.065428       0.059908
                                                         0.100112      -0.023770
                                                         0.243077       0.000032
                                                         0.625955       0.017779
                                                         1.822143       0.000000
                                                         6.513144       0.000000
                                                        35.523221       0.000000
                          1       4    2pz               0.065428       0.059908
                                                         0.100112      -0.023770
                                                         0.243077       0.000032
                                                         0.625955       0.017779
                                                         1.822143       0.000000
                                                         6.513144       0.000000
                                                        35.523221       0.000000

     RI Auxiliary Basis Set             RI_aug-SZV-MOLOPT-ae_N_RI_035_s_p_d_f_g_

       Number of orbital shell sets:                                          15
       Number of orbital shells:                                              15
       Number of primitive Cartesian functions:                               15
       Number of Cartesian basis functions:                                   37
       Number of spherical basis functions:                                   35
       Norm type:                                                              2

       Normalised Cartesian orbitals:

                        Set   Shell   Orbital            Exponent    Coefficient

                          1       1    1s                0.236911       0.242019

                          2       1    8px               0.347892       0.380843
                          2       1    8py               0.347892       0.380843
                          2       1    8pz               0.347892       0.380843

                          3       1    2s                0.423897       0.374417

                          4       1    9px               0.493166       0.589089
                          4       1    9py               0.493166       0.589089
                          4       1    9pz               0.493166       0.589089

                          5       1   14dx2              0.625366       0.723843
                          5       1   14dxy              0.625366       1.253733
                          5       1   14dxz              0.625366       1.253733
                          5       1   14dy2              0.625366       0.723843
                          5       1   14dyz              0.625366       1.253733
                          5       1   14dz2              0.625366       0.723843

                          6       1   10px               0.699103       0.911206
                          6       1   10py               0.699103       0.911206
                          6       1   10pz               0.699103       0.911206

                          7       1    3s                0.758464       0.579244

                          8       1   11px               0.991036       1.409457
                          8       1   11py               0.991036       1.409457
                          8       1   11pz               0.991036       1.409457

                          9       1   15dx2              1.286053       2.556305
                          9       1   15dxy              1.286053       4.427650
                          9       1   15dxz              1.286053       4.427650
                          9       1   15dy2              1.286053       2.556305
                          9       1   15dyz              1.286053       4.427650
                          9       1   15dz2              1.286053       2.556305

                         10       1    4s                1.357095       0.896123

                         11       1   12px               1.404875       2.180155
                         11       1   12py               1.404875       2.180155
                         11       1   12pz               1.404875       2.180155

                         12       1   13px               1.991527       3.372273
                         12       1   13py               1.991527       3.372273
                         12       1   13pz               1.991527       3.372273

                         13       1    5s                2.428204       1.386354

                         14       1    6s                4.344704       2.144768

                         15       1    7s                7.773833       3.318077

       Atomic covalent radius [Angstrom]:                                  0.320

       Atomic van der Waals radius [Angstrom]:                             1.090

     The atoms of this atomic kind are PAW atoms (GAPW):
       Hard Gaussian function radius:                                      1.200
       Rho0 radius:                                                        1.200
       Maximum GTO radius used for PAW projector construction:            24.566

     GAPW Soft Basis Set                                  aug-SZV-MOLOPT-ae_soft

       Number of orbital shell sets:                                           1
       Number of orbital shells:                                               4
       Number of primitive Cartesian functions:                                6
       Number of Cartesian basis functions:                                    6
       Number of spherical basis functions:                                    6
       Norm type:                                                              2

       Normalised Cartesian orbitals:

                        Set   Shell   Orbital            Exponent    Coefficient

                          1       1    1s                0.065428       0.000000
                                                         0.100112       0.016532
                                                         0.243077       0.102760
                                                         0.625955       0.185857
                                                         1.822143       0.188385
                                                         6.513144       0.000000

                          1       2    2s                0.065428       0.083549
                                                         0.100112       0.009605
                                                         0.243077       0.002524
                                                         0.625955       0.013457
                                                         1.822143       0.000000
                                                         6.513144       0.000000

                          1       3    3s                0.065428       0.037407
                                                         0.100112      -0.169070
                                                         0.243077      -0.018899
                                                         0.625955       0.012806
                                                         1.822143       0.000000
                                                         6.513144       0.000000

                          1       4    2px               0.065428       0.059908
                                                         0.100112      -0.023770
                                                         0.243077       0.000032
                                                         0.625955       0.017779
                                                         1.822143       0.000000
                                                         6.513144       0.000000
                          1       4    2py               0.065428       0.059908
                                                         0.100112      -0.023770
                                                         0.243077       0.000032
                                                         0.625955       0.017779
                                                         1.822143       0.000000
                                                         6.513144       0.000000
                          1       4    2pz               0.065428       0.059908
                                                         0.100112      -0.023770
                                                         0.243077       0.000032
                                                         0.625955       0.017779
                                                         1.822143       0.000000
                                                         6.513144       0.000000

     AE Potential information for                                            ALL

       Description:                                       All-electron potential
                                          Krack, Parrinello, PCCP 2, 2105 (2000)

       Gaussian exponent of the core charge distribution:              12.500000
       Electronic configuration (s p d ...):                           1   0   0

  2. Atomic kind: O                                     Number of atoms:       3

     Orbital Basis Set                                         aug-SZV-MOLOPT-ae

       Number of orbital shell sets:                                           2
       Number of orbital shells:                                               5
       Number of primitive Cartesian functions:                               13
       Number of Cartesian basis functions:                                    9
       Number of spherical basis functions:                                    9
       Norm type:                                                              2

       Normalised Cartesian orbitals:

                        Set   Shell   Orbital            Exponent    Coefficient

                          1       1    1s                0.123000       0.000000
                                                         0.245881       0.059902
                                                         0.536420       0.265853
                                                         1.235135       0.208956
                                                         3.210345      -0.057750
                                                        10.329320      -0.192968
                                                        52.187762      -0.183398

                          1       2    2s                0.123000      -0.253465
                                                         0.245881       0.187097
                                                         0.536420       0.063592
                                                         1.235135       0.074938
                                                         3.210345       0.000000
                                                        10.329320       0.000000
                                                        52.187762       0.000000

                          1       3    2px               0.123000       0.000000
                                                         0.245881       0.025102
                                                         0.536420       0.278668
                                                         1.235135       0.775885
                                                         3.210345       1.065175
                                                        10.329320       0.994565
                                                        52.187762       0.751716
                          1       3    2py               0.123000       0.000000
                                                         0.245881       0.025102
                                                         0.536420       0.278668
                                                         1.235135       0.775885
                                                         3.210345       1.065175
                                                        10.329320       0.994565
                                                        52.187762       0.751716
                          1       3    2pz               0.123000       0.000000
                                                         0.245881       0.025102
                                                         0.536420       0.278668
                                                         1.235135       0.775885
                                                         3.210345       1.065175
                                                        10.329320       0.994565
                                                        52.187762       0.751716

                          1       4    3px               0.123000       0.048536
                                                         0.245881       0.257066
                                                         0.536420      -0.539300
                                                         1.235135      -0.153605
                                                         3.210345       0.000000
                                                        10.329320       0.000000
                                                        52.187762       0.000000
                          1       4    3py               0.123000       0.048536
                                                         0.245881       0.257066
                                                         0.536420      -0.539300
                                                         1.235135      -0.153605
                                                         3.210345       0.000000
                                                        10.329320       0.000000
                                                        52.187762       0.000000
                          1       4    3pz               0.123000       0.048536
                                                         0.245881       0.257066
                                                         0.536420      -0.539300
                                                         1.235135      -0.153605
                                                         3.210345       0.000000
                                                        10.329320       0.000000
                                                        52.187762       0.000000

                          2       1    1s             1355.584234       1.459053
                                                       248.544885       2.202176
                                                        69.533902       2.892385
                                                        23.886772       2.853580
                                                         9.275933       1.577736
                                                         3.820341       0.253831

     RI Auxiliary Basis Set             RI_aug-SZV-MOLOPT-ae_N_RI_103_s_p_d_f_g_

       Number of orbital shell sets:                                          23
       Number of orbital shells:                                              23
       Number of primitive Cartesian functions:                               23
       Number of Cartesian basis functions:                                  148
       Number of spherical basis functions:                                  103
       Norm type:                                                              2

       Normalised Cartesian orbitals:

                        Set   Shell   Orbital            Exponent    Coefficient

                          1       1    1s                0.307154       0.294054

                          2       1    8px               0.379191       0.424143
                          2       1    8py               0.379191       0.424143
                          2       1    8pz               0.379191       0.424143

                          3       1   13dx2              0.394950       0.323861
                          3       1   13dxy              0.394950       0.560944
                          3       1   13dxz              0.394950       0.560944
                          3       1   13dy2              0.394950       0.323861
                          3       1   13dyz              0.394950       0.560944
                          3       1   13dz2              0.394950       0.323861

                          4       1   17fx3              0.620728       0.503480
                          4       1   17fx2y             0.620728       1.125817
                          4       1   17fx2z             0.620728       1.125817
                          4       1   17fxy2             0.620728       1.125817
                          4       1   17fxyz             0.620728       1.949972
                          4       1   17fxz2             0.620728       1.125817
                          4       1   17fy3              0.620728       0.503480
                          4       1   17fy2z             0.620728       1.125817
                          4       1   17fyz2             0.620728       1.125817
                          4       1   17fz3              0.620728       0.503480

                          5       1    2s                0.744426       0.571184

                          6       1   14dx2              0.877550       1.309590
                          6       1   14dxy              0.877550       2.268276
                          6       1   14dxz              0.877550       2.268276
                          6       1   14dy2              0.877550       1.309590
                          6       1   14dyz              0.877550       2.268276
                          6       1   14dz2              0.877550       1.309590

                          7       1   20gx4              0.992218       1.089194
                          7       1   20gx3y             0.992218       2.881737
                          7       1   20gx3z             0.992218       2.881737
                          7       1   20gx2y2            0.992218       3.720307
                          7       1   20gx2yz            0.992218       6.443761
                          7       1   20gx2z2            0.992218       3.720307
                          7       1   20gxy3             0.992218       2.881737
                          7       1   20gxy2z            0.992218       6.443761
                          7       1   20gxyz2            0.992218       6.443761
                          7       1   20gxz3             0.992218       2.881737
                          7       1   20gy4              0.992218       1.089194
                          7       1   20gy3z             0.992218       2.881737
                          7       1   20gy2z2            0.992218       3.720307
                          7       1   20gyz3             0.992218       2.881737
                          7       1   20gz4              0.992218       1.089194

                          8       1    9px               1.225131       1.837250
                          8       1    9py               1.225131       1.837250
                          8       1    9pz               1.225131       1.837250

                          9       1   18fx3              1.708362       4.912008
                          9       1   18fx2y             1.708362      10.983584
                          9       1   18fx2z             1.708362      10.983584
                          9       1   18fxy2             1.708362      10.983584
                          9       1   18fxyz             1.708362      19.024125
                          9       1   18fxz2             1.708362      10.983584
                          9       1   18fy3              1.708362       4.912008
                          9       1   18fy2z             1.708362      10.983584
                          9       1   18fyz2             1.708362      10.983584
                          9       1   18fz3              1.708362       4.912008

                         10       1   22hx5              1.724001       4.356031
                         10       1   22hx4y             1.724001      13.068092
                         10       1   22hx4z             1.724001      13.068092
                         10       1   22hx3y2            1.724001      19.961840
                         10       1   22hx3yz            1.724001      34.574921
                         10       1   22hx3z2            1.724001      19.961840
                         10       1   22hx2y3            1.724001      19.961840
                         10       1   22hx2y2z           1.724001      44.636031
                         10       1   22hx2yz2           1.724001      44.636031
                         10       1   22hx2z3            1.724001      19.961840
                         10       1   22hxy4             1.724001      13.068092
                         10       1   22hxy3z            1.724001      34.574921
                         10       1   22hxy2z2           1.724001      44.636031
                         10       1   22hxyz3            1.724001      34.574921
                         10       1   22hxz4             1.724001      13.068092
                         10       1   22hy5              1.724001       4.356031
                         10       1   22hy4z             1.724001      13.068092
                         10       1   22hy3z2            1.724001      19.961840
                         10       1   22hy2z3            1.724001      19.961840
                         10       1   22hyz4             1.724001      13.068092
                         10       1   22hz5              1.724001       4.356031

                         11       1   23hx5              1.809175       5.095135
                         11       1   23hx4y             1.809175      15.285404
                         11       1   23hx4z             1.809175      15.285404
                         11       1   23hx3y2            1.809175      23.348840
                         11       1   23hx3yz            1.809175      40.441378
                         11       1   23hx3z2            1.809175      23.348840
                         11       1   23hx2y3            1.809175      23.348840
                         11       1   23hx2y2z           1.809175      52.209594
                         11       1   23hx2yz2           1.809175      52.209594
                         11       1   23hx2z3            1.809175      23.348840
                         11       1   23hxy4             1.809175      15.285404
                         11       1   23hxy3z            1.809175      40.441378
                         11       1   23hxy2z2           1.809175      52.209594
                         11       1   23hxyz3            1.809175      40.441378
                         11       1   23hxz4             1.809175      15.285404
                         11       1   23hy5              1.809175       5.095135
                         11       1   23hy4z             1.809175      15.285404
                         11       1   23hy3z2            1.809175      23.348840
                         11       1   23hy2z3            1.809175      23.348840
                         11       1   23hyz4             1.809175      15.285404
                         11       1   23hz5              1.809175       5.095135

                         12       1    3s                2.157265       1.268638

                         13       1   21gx4              2.327018      11.353634
                         13       1   21gx3y             2.327018      30.038892
                         13       1   21gx3z             2.327018      30.038892
                         13       1   21gx2y2            2.327018      38.780042
                         13       1   21gx2yz            2.327018      67.169004
                         13       1   21gx2z2            2.327018      38.780042
                         13       1   21gxy3             2.327018      30.038892
                         13       1   21gxy2z            2.327018      67.169004
                         13       1   21gxyz2            2.327018      67.169004
                         13       1   21gxz3             2.327018      30.038892
                         13       1   21gy4              2.327018      11.353634
                         13       1   21gy3z             2.327018      30.038892
                         13       1   21gy2z2            2.327018      38.780042
                         13       1   21gyz3             2.327018      30.038892
                         13       1   21gz4              2.327018      11.353634

                         14       1   15dx2              2.469959       8.009705
                         14       1   15dxy              2.469959      13.873216
                         14       1   15dxz              2.469959      13.873216
                         14       1   15dy2              2.469959       8.009705
                         14       1   15dyz              2.469959      13.873216
                         14       1   15dz2              2.469959       8.009705

                         15       1   10px               3.619289       7.115726
                         15       1   10py               3.619289       7.115726
                         15       1   10pz               3.619289       7.115726

                         16       1   19fx3              4.699550      47.871939
                         16       1   19fx2y             4.699550     107.044910
                         16       1   19fx2z             4.699550     107.044910
                         16       1   19fxy2             4.699550     107.044910
                         16       1   19fxyz             4.699550     185.407223
                         16       1   19fxz2             4.699550     107.044910
                         16       1   19fy3              4.699550      47.871939
                         16       1   19fy2z             4.699550     107.044910
                         16       1   19fyz2             4.699550     107.044910
                         16       1   19fz3              4.699550      47.871939

                         17       1    4s                6.383845       2.862344

                         18       1   16dx2              7.341430      53.892159
                         18       1   16dxy              7.341430      93.343957
                         18       1   16dxz              7.341430      93.343957
                         18       1   16dy2              7.341430      53.892159
                         18       1   16dyz              7.341430      93.343957
                         18       1   16dz2              7.341430      53.892159

                         19       1   11px              10.661388      27.460426
                         19       1   11py              10.661388      27.460426
                         19       1   11pz              10.661388      27.460426

                         20       1    5s               18.807752       6.436692

                         21       1   12px              31.419092     106.030821
                         21       1   12py              31.419092     106.030821
                         21       1   12pz              31.419092     106.030821

                         22       1    6s               55.343728      14.461435

                         23       1    7s              162.847528      32.489720

       Atomic covalent radius [Angstrom]:                                  0.730

       Atomic van der Waals radius [Angstrom]:                             1.520

     The atoms of this atomic kind are PAW atoms (GAPW):
       Hard Gaussian function radius:                                      1.512
       Rho0 radius:                                                        1.512
       Maximum GTO radius used for PAW projector construction:            24.566

     GAPW Soft Basis Set                                  aug-SZV-MOLOPT-ae_soft

       Number of orbital shell sets:                                           2
       Number of orbital shells:                                               5
       Number of primitive Cartesian functions:                                6
       Number of Cartesian basis functions:                                    9
       Number of spherical basis functions:                                    9
       Norm type:                                                              2

       Normalised Cartesian orbitals:

                        Set   Shell   Orbital            Exponent    Coefficient

                          1       1    1s                0.123000       0.000000
                                                         0.245881       0.059902
                                                         0.536420       0.265853
                                                         1.235135       0.208956
                                                         3.210345      -0.057750

                          1       2    2s                0.123000      -0.253465
                                                         0.245881       0.187097
                                                         0.536420       0.063592
                                                         1.235135       0.074938
                                                         3.210345       0.000000

                          1       3    2px               0.123000       0.000000
                                                         0.245881       0.025102
                                                         0.536420       0.278668
                                                         1.235135       0.775885
                                                         3.210345       1.065175
                          1       3    2py               0.123000       0.000000
                                                         0.245881       0.025102
                                                         0.536420       0.278668
                                                         1.235135       0.775885
                                                         3.210345       1.065175
                          1       3    2pz               0.123000       0.000000
                                                         0.245881       0.025102
                                                         0.536420       0.278668
                                                         1.235135       0.775885
                                                         3.210345       1.065175

                          1       4    3px               0.123000       0.048536
                                                         0.245881       0.257066
                                                         0.536420      -0.539300
                                                         1.235135      -0.153605
                                                         3.210345       0.000000
                          1       4    3py               0.123000       0.048536
                                                         0.245881       0.257066
                                                         0.536420      -0.539300
                                                         1.235135      -0.153605
                                                         3.210345       0.000000
                          1       4    3pz               0.123000       0.048536
                                                         0.245881       0.257066
                                                         0.536420      -0.539300
                                                         1.235135      -0.153605
                                                         3.210345       0.000000

                          2       1    1s                3.820341       0.253831

     AE Potential information for                                            ALL

       Description:                                       All-electron potential
                                          Krack, Parrinello, PCCP 2, 2105 (2000)

       Gaussian exponent of the core charge distribution:               8.154466
       Electronic configuration (s p d ...):                           4   4   0

  3. Atomic kind: C                                     Number of atoms:       6

     Orbital Basis Set                                         aug-SZV-MOLOPT-ae

       Number of orbital shell sets:                                           2
       Number of orbital shells:                                               6
       Number of primitive Cartesian functions:                               13
       Number of Cartesian basis functions:                                   15
       Number of spherical basis functions:                                   14
       Norm type:                                                              2

       Normalised Cartesian orbitals:

                        Set   Shell   Orbital            Exponent    Coefficient

                          1       1    2s                0.070000       0.000000
                                                         0.143687       0.040037
                                                         0.313471       0.177689
                                                         0.721783       0.139661
                                                         1.876046      -0.038599
                                                         6.036200      -0.128975
                                                        30.497239      -0.122578

                          1       2    3s                0.070000      -0.142268
                                                         0.143687       0.288819
                                                         0.313471       0.010360
                                                         0.721783       0.175994
                                                         1.876046       0.000000
                                                         6.036200       0.000000
                                                        30.497239       0.000000

                          1       3    3px               0.070000       0.000000
                                                         0.143687       0.012825
                                                         0.313471       0.142381
                                                         0.721783       0.396426
                                                         1.876046       0.544234
                                                         6.036200       0.508157
                                                        30.497239       0.384077
                          1       3    3py               0.070000       0.000000
                                                         0.143687       0.012825
                                                         0.313471       0.142381
                                                         0.721783       0.396426
                                                         1.876046       0.544234
                                                         6.036200       0.508157
                                                        30.497239       0.384077
                          1       3    3pz               0.070000       0.000000
                                                         0.143687       0.012825
                                                         0.313471       0.142381
                                                         0.721783       0.396426
                                                         1.876046       0.544234
                                                         6.036200       0.508157
                                                        30.497239       0.384077

                          1       4    4px               0.070000       0.076505
                                                         0.143687      -0.086104
                                                         0.313471       0.010230
                                                         0.721783       0.129894
                                                         1.876046       0.000000
                                                         6.036200       0.000000
                                                        30.497239       0.000000
                          1       4    4py               0.070000       0.076505
                                                         0.143687      -0.086104
                                                         0.313471       0.010230
                                                         0.721783       0.129894
                                                         1.876046       0.000000
                                                         6.036200       0.000000
                                                        30.497239       0.000000
                          1       4    4pz               0.070000       0.076505
                                                         0.143687      -0.086104
                                                         0.313471       0.010230
                                                         0.721783       0.129894
                                                         1.876046       0.000000
                                                         6.036200       0.000000
                                                        30.497239       0.000000

                          1       5    4dx2              0.070000       0.004316
                                                         0.143687       0.012639
                                                         0.313471       0.125057
                                                         0.721783       0.080411
                                                         1.876046       0.000000
                                                         6.036200       0.000000
                                                        30.497239       0.000000
                          1       5    4dxy              0.070000       0.007476
                                                         0.143687       0.021892
                                                         0.313471       0.216606
                                                         0.721783       0.139276
                                                         1.876046       0.000000
                                                         6.036200       0.000000
                                                        30.497239       0.000000
                          1       5    4dxz              0.070000       0.007476
                                                         0.143687       0.021892
                                                         0.313471       0.216606
                                                         0.721783       0.139276
                                                         1.876046       0.000000
                                                         6.036200       0.000000
                                                        30.497239       0.000000
                          1       5    4dy2              0.070000       0.004316
                                                         0.143687       0.012639
                                                         0.313471       0.125057
                                                         0.721783       0.080411
                                                         1.876046       0.000000
                                                         6.036200       0.000000
                                                        30.497239       0.000000
                          1       5    4dyz              0.070000       0.007476
                                                         0.143687       0.021892
                                                         0.313471       0.216606
                                                         0.721783       0.139276
                                                         1.876046       0.000000
                                                         6.036200       0.000000
                                                        30.497239       0.000000
                          1       5    4dz2              0.070000       0.004316
                                                         0.143687       0.012639
                                                         0.313471       0.125057
                                                         0.721783       0.080411
                                                         1.876046       0.000000
                                                         6.036200       0.000000
                                                        30.497239       0.000000

                          2       1    1s              742.737049       0.929185
                                                       136.180025       1.402437
                                                        38.098264       1.841991
                                                        13.087782       1.817278
                                                         5.082369       1.004768
                                                         2.093200       0.161650

     RI Auxiliary Basis Set             RI_aug-SZV-MOLOPT-ae_N_RI_048_s_p_d_f_g_

       Number of orbital shell sets:                                          14
       Number of orbital shells:                                              14
       Number of primitive Cartesian functions:                               14
       Number of Cartesian basis functions:                                   62
       Number of spherical basis functions:                                   48
       Norm type:                                                              2

       Normalised Cartesian orbitals:

                        Set   Shell   Orbital            Exponent    Coefficient

                          1       1    1s                0.182132       0.198701

                          2       1    7px               0.213594       0.206979
                          2       1    7py               0.213594       0.206979
                          2       1    7pz               0.213594       0.206979

                          3       1   10dx2              0.381125       0.304282
                          3       1   10dxy              0.381125       0.527033
                          3       1   10dxz              0.381125       0.527033
                          3       1   10dy2              0.381125       0.304282
                          3       1   10dyz              0.381125       0.527033
                          3       1   10dz2              0.381125       0.304282

                          4       1    2s                0.433905       0.381027

                          5       1   12fx3              0.524446       0.344573
                          5       1   12fx2y             0.524446       0.770488
                          5       1   12fx2z             0.524446       0.770488
                          5       1   12fxy2             0.524446       0.770488
                          5       1   12fxyz             0.524446       1.334524
                          5       1   12fxz2             0.524446       0.770488
                          5       1   12fy3              0.524446       0.344573
                          5       1   12fy2z             0.524446       0.770488
                          5       1   12fyz2             0.524446       0.770488
                          5       1   12fz3              0.524446       0.344573

                          6       1    8px               0.915857       1.277099
                          6       1    8py               0.915857       1.277099
                          6       1    8pz               0.915857       1.277099

                          7       1   14gx4              1.217666       1.912659
                          7       1   14gx3y             1.217666       5.060419
                          7       1   14gx3z             1.217666       5.060419
                          7       1   14gx2y2            1.217666       6.532973
                          7       1   14gx2yz            1.217666      11.315442
                          7       1   14gx2z2            1.217666       6.532973
                          7       1   14gxy3             1.217666       5.060419
                          7       1   14gxy2z            1.217666      11.315442
                          7       1   14gxyz2            1.217666      11.315442
                          7       1   14gxz3             1.217666       5.060419
                          7       1   14gy4              1.217666       1.912659
                          7       1   14gy3z             1.217666       5.060419
                          7       1   14gy2z2            1.217666       6.532973
                          7       1   14gyz3             1.217666       5.060419
                          7       1   14gz4              1.217666       1.912659

                          8       1   11dx2              1.581488       3.670921
                          8       1   11dxy              1.581488       6.358221
                          8       1   11dxz              1.581488       6.358221
                          8       1   11dy2              1.581488       3.670921
                          8       1   11dyz              1.581488       6.358221
                          8       1   11dz2              1.581488       3.670921

                          9       1    3s                1.620693       1.023730

                         10       1   13fx3              2.677157      13.496481
                         10       1   13fx2y             2.677157      30.179050
                         10       1   13fx2z             2.677157      30.179050
                         10       1   13fxy2             2.677157      30.179050
                         10       1   13fxyz             2.677157      52.271648
                         10       1   13fxz2             2.677157      30.179050
                         10       1   13fy3              2.677157      13.496481
                         10       1   13fy2z             2.677157      30.179050
                         10       1   13fyz2             2.677157      30.179050
                         10       1   13fz3              2.677157      13.496481

                         11       1    4s                5.999661       2.732154

                         12       1    9px               9.284861      23.102519
                         12       1    9py               9.284861      23.102519
                         12       1    9pz               9.284861      23.102519

                         13       1    5s               22.224963       7.295262

                         14       1    6s               82.329769      19.479498

       Atomic covalent radius [Angstrom]:                                  0.770

       Atomic van der Waals radius [Angstrom]:                             1.700

     The atoms of this atomic kind are PAW atoms (GAPW):
       Hard Gaussian function radius:                                      1.512
       Rho0 radius:                                                        1.512
       Maximum GTO radius used for PAW projector construction:            24.566

     GAPW Soft Basis Set                                  aug-SZV-MOLOPT-ae_soft

       Number of orbital shell sets:                                           2
       Number of orbital shells:                                               6
       Number of primitive Cartesian functions:                                6
       Number of Cartesian basis functions:                                   15
       Number of spherical basis functions:                                   14
       Norm type:                                                              2

       Normalised Cartesian orbitals:

                        Set   Shell   Orbital            Exponent    Coefficient

                          1       1    2s                0.070000       0.000000
                                                         0.143687       0.040037
                                                         0.313471       0.177689
                                                         0.721783       0.139661
                                                         1.876046      -0.038599

                          1       2    3s                0.070000      -0.142268
                                                         0.143687       0.288819
                                                         0.313471       0.010360
                                                         0.721783       0.175994
                                                         1.876046       0.000000

                          1       3    3px               0.070000       0.000000
                                                         0.143687       0.012825
                                                         0.313471       0.142381
                                                         0.721783       0.396426
                                                         1.876046       0.544234
                          1       3    3py               0.070000       0.000000
                                                         0.143687       0.012825
                                                         0.313471       0.142381
                                                         0.721783       0.396426
                                                         1.876046       0.544234
                          1       3    3pz               0.070000       0.000000
                                                         0.143687       0.012825
                                                         0.313471       0.142381
                                                         0.721783       0.396426
                                                         1.876046       0.544234

                          1       4    4px               0.070000       0.076505
                                                         0.143687      -0.086104
                                                         0.313471       0.010230
                                                         0.721783       0.129894
                                                         1.876046       0.000000
                          1       4    4py               0.070000       0.076505
                                                         0.143687      -0.086104
                                                         0.313471       0.010230
                                                         0.721783       0.129894
                                                         1.876046       0.000000
                          1       4    4pz               0.070000       0.076505
                                                         0.143687      -0.086104
                                                         0.313471       0.010230
                                                         0.721783       0.129894
                                                         1.876046       0.000000

                          1       5    4dx2              0.070000       0.004316
                                                         0.143687       0.012639
                                                         0.313471       0.125057
                                                         0.721783       0.080411
                                                         1.876046       0.000000
                          1       5    4dxy              0.070000       0.007476
                                                         0.143687       0.021892
                                                         0.313471       0.216606
                                                         0.721783       0.139276
                                                         1.876046       0.000000
                          1       5    4dxz              0.070000       0.007476
                                                         0.143687       0.021892
                                                         0.313471       0.216606
                                                         0.721783       0.139276
                                                         1.876046       0.000000
                          1       5    4dy2              0.070000       0.004316
                                                         0.143687       0.012639
                                                         0.313471       0.125057
                                                         0.721783       0.080411
                                                         1.876046       0.000000
                          1       5    4dyz              0.070000       0.007476
                                                         0.143687       0.021892
                                                         0.313471       0.216606
                                                         0.721783       0.139276
                                                         1.876046       0.000000
                          1       5    4dz2              0.070000       0.004316
                                                         0.143687       0.012639
                                                         0.313471       0.125057
                                                         0.721783       0.080411
                                                         1.876046       0.000000

                          2       1    1s                2.093200       0.161650

     AE Potential information for                                            ALL

       Description:                                       All-electron potential
                                          Krack, Parrinello, PCCP 2, 2105 (2000)

       Gaussian exponent of the core charge distribution:               4.109048
       Electronic configuration (s p d ...):                           4   2   0


 MOLECULE KIND INFORMATION


 All atoms are their own molecule, skipping detailed information


 TOTAL NUMBERS AND MAXIMUM NUMBERS

  Total number of            - Atomic kinds:                                   3
                             - Atoms:                                         17
                             - Shell sets:                                    26
                             - Shells:                                        83
                             - Primitive Cartesian functions:                173
                             - Cartesian basis functions:                    165
                             - Spherical basis functions:                    159

  Maximum angular momentum of the orbital basis functions:                     2


 MODULE QUICKSTEP: ATOMIC COORDINATES IN ANGSTROM

   Atom Kind Element         X             Y             Z       Z(eff)     Mass
      1    1 H     1     12.297650     15.826075     13.728735   1.0000   1.0079
      2    2 O     8     11.722179     13.743628     15.414875   8.0000  15.9994
      3    1 H     1     14.445536     13.056089     14.867539   1.0000   1.0079
      4    2 O     8     16.847583     13.745826     14.433233   8.0000  15.9994
      5    1 H     1     14.706434     15.502430     13.406659   1.0000   1.0079
      6    2 O     8     17.396838     15.557759     15.671636   8.0000  15.9994
      7    1 H     1     18.277821     15.279425     15.352626   1.0000   1.0079
      8    3 C     6     15.084099     15.027772     15.503229   6.0000  12.0107
      9    1 H     1     15.095650     15.599376     16.442062   1.0000   1.0079
     10    3 C     6     14.156220     13.815019     15.614391   6.0000  12.0107
     11    1 H     1     14.150247     13.321880     16.593341   1.0000   1.0079
     12    3 C     6     12.767297     14.332695     15.243177   6.0000  12.0107
     13    3 C     6     12.921681     15.725955     14.624835   6.0000  12.0107
     14    1 H     1     12.539546     16.449504     15.364068   1.0000   1.0079
     15    3 C     6     14.423936     15.902430     14.391503   6.0000  12.0107
     16    1 H     1     14.761556     16.943911     14.439205   1.0000   1.0079
     17    3 C     6     16.507143     14.672151     15.139192   6.0000  12.0107



 SCF PARAMETERS         Density guess:                                    ATOMIC
                        --------------------------------------------------------
                        max_scf:                                             500
                        max_scf_history:                                       0
                        max_diis:                                              4
                        --------------------------------------------------------
                        eps_scf:                                        1.00E-06
                        eps_scf_history:                                0.00E+00
                        eps_diis:                                       1.00E-01
                        eps_eigval:                                     1.00E-05
                        --------------------------------------------------------
                        level_shift [a.u.]:                             0.000000
                        added MOs                                       125    0
                        --------------------------------------------------------
                        Mixing method:                            BROYDEN_MIXING
                                                charge density mixing in g-space
                        --------------------------------------------------------
                        No outer SCF

 PW_GRID| Information for grid number                                          1
 PW_GRID| Grid distributed over                                   192 processors
 PW_GRID| Real space group dimensions                                   192    1
 PW_GRID| the grid is blocked:                                                NO
 PW_GRID| Cutoff [a.u.]                                                    250.0
 PW_GRID| spherical cutoff:                                                   NO
 PW_GRID|   Bounds   1           -202     202                Points:         405
 PW_GRID|   Bounds   2           -202     202                Points:         405
 PW_GRID|   Bounds   3           -202     202                Points:         405
 PW_GRID| Volume element (a.u.^3)  0.2743E-02     Volume (a.u.^3)    182205.0337
 PW_GRID| Grid span                                                    FULLSPACE
 PW_GRID|   Distribution                         Average         Max         Min
 PW_GRID|   G-Vectors                           345990.2      346275      345870
 PW_GRID|   G-Rays                                 854.3         855         854
 PW_GRID|   Real Space Points                   345990.2      492075      328050

 PW_GRID| Information for grid number                                          2
 PW_GRID| Number of the reference grid                                         1
 PW_GRID| Grid distributed over                                   192 processors
 PW_GRID| Real space group dimensions                                   192    1
 PW_GRID| the grid is blocked:                                                NO
 PW_GRID| Cutoff [a.u.]                                                     83.3
 PW_GRID| spherical cutoff:                                                   NO
 PW_GRID|   Bounds   1           -120     119                Points:         240
 PW_GRID|   Bounds   2           -120     119                Points:         240
 PW_GRID|   Bounds   3           -120     119                Points:         240
 PW_GRID| Volume element (a.u.^3)  0.1318E-01     Volume (a.u.^3)    182205.0337
 PW_GRID| Grid span                                                    FULLSPACE
 PW_GRID|   Distribution                         Average         Max         Min
 PW_GRID|   G-Vectors                            72000.0       72240       71760
 PW_GRID|   G-Rays                                 300.0         301         299
 PW_GRID|   Real Space Points                    72000.0      115200       57600

 PW_GRID| Information for grid number                                          3
 PW_GRID| Number of the reference grid                                         1
 PW_GRID| Grid distributed over                                   192 processors
 PW_GRID| Real space group dimensions                                    12   16
 PW_GRID| the grid is blocked:                                                NO
 PW_GRID| Cutoff [a.u.]                                                     27.8
 PW_GRID| spherical cutoff:                                                   NO
 PW_GRID|   Bounds   1            -67      67                Points:         135
 PW_GRID|   Bounds   2            -67      67                Points:         135
 PW_GRID|   Bounds   3            -67      67                Points:         135
 PW_GRID| Volume element (a.u.^3)  0.7406E-01     Volume (a.u.^3)    182205.0337
 PW_GRID| Grid span                                                    FULLSPACE
 PW_GRID|   Distribution                         Average         Max         Min
 PW_GRID|   G-Vectors                            12814.5       12960       12690
 PW_GRID|   G-Rays                                  94.9          96          94
 PW_GRID|   Real Space Points                    12814.5       14580       11880

 PW_GRID| Information for grid number                                          4
 PW_GRID| Number of the reference grid                                         1
 PW_GRID| Grid distributed over                                   192 processors
 PW_GRID| Real space group dimensions                                    12   16
 PW_GRID| the grid is blocked:                                                NO
 PW_GRID| Cutoff [a.u.]                                                      9.3
 PW_GRID| spherical cutoff:                                                   NO
 PW_GRID|   Bounds   1            -40      39                Points:          80
 PW_GRID|   Bounds   2            -40      39                Points:          80
 PW_GRID|   Bounds   3            -40      39                Points:          80
 PW_GRID| Volume element (a.u.^3)  0.3559         Volume (a.u.^3)    182205.0337
 PW_GRID| Grid span                                                    FULLSPACE
 PW_GRID|   Distribution                         Average         Max         Min
 PW_GRID|   G-Vectors                             2666.7        2800        2560
 PW_GRID|   G-Rays                                  33.3          35          32
 PW_GRID|   Real Space Points                     2666.7        2800        2400

 POISSON| Solver                                                         WAVELET
 POISSON| Wavelet| Scaling function                                           40
 POISSON| Periodicity                                                       NONE

 RS_GRID| Information for grid number                                          1
 RS_GRID|   Bounds   1           -202     202                Points:         405
 RS_GRID|   Bounds   2           -202     202                Points:         405
 RS_GRID|   Bounds   3           -202     202                Points:         405
 RS_GRID| Real space distribution over                                  4 groups
 RS_GRID| Real space distribution along direction                              1
 RS_GRID| Border size                                                         34
 RS_GRID| Real space distribution over                                  6 groups
 RS_GRID| Real space distribution along direction                              2
 RS_GRID| Border size                                                         34
 RS_GRID| Real space distribution over                                  8 groups
 RS_GRID| Real space distribution along direction                              3
 RS_GRID| Border size                                                         34
 RS_GRID|   Distribution                         Average         Max         Min
 RS_GRID|   Planes                                 169.2         170         169
 RS_GRID|   Distribution                         Average         Max         Min
 RS_GRID|   Planes                                 135.5         136         135
 RS_GRID|   Distribution                         Average         Max         Min
 RS_GRID|   Planes                                 118.6         119         118

 RS_GRID| Information for grid number                                          2
 RS_GRID|   Bounds   1           -120     119                Points:         240
 RS_GRID|   Bounds   2           -120     119                Points:         240
 RS_GRID|   Bounds   3           -120     119                Points:         240
 RS_GRID| Real space distribution over                                  4 groups
 RS_GRID| Real space distribution along direction                              1
 RS_GRID| Border size                                                         36
 RS_GRID| Real space distribution over                                  6 groups
 RS_GRID| Real space distribution along direction                              2
 RS_GRID| Border size                                                         36
 RS_GRID| Real space distribution over                                  8 groups
 RS_GRID| Real space distribution along direction                              3
 RS_GRID| Border size                                                         36
 RS_GRID|   Distribution                         Average         Max         Min
 RS_GRID|   Planes                                 132.0         132         132
 RS_GRID|   Distribution                         Average         Max         Min
 RS_GRID|   Planes                                 112.0         112         112
 RS_GRID|   Distribution                         Average         Max         Min
 RS_GRID|   Planes                                 102.0         102         102

 RS_GRID| Information for grid number                                          3
 RS_GRID|   Bounds   1            -67      67                Points:         135
 RS_GRID|   Bounds   2            -67      67                Points:         135
 RS_GRID|   Bounds   3            -67      67                Points:         135
 RS_GRID| Real space fully replicated
 RS_GRID| Group size                                                           1

 RS_GRID| Information for grid number                                          4
 RS_GRID|   Bounds   1            -40      39                Points:          80
 RS_GRID|   Bounds   2            -40      39                Points:          80
 RS_GRID|   Bounds   3            -40      39                Points:          80
 RS_GRID| Real space fully replicated
 RS_GRID| Group size                                                           1

  HFX_INFO| Replica ID:                                                        1
  HFX_INFO| FRACTION:                                               0.2500000000
  HFX_INFO| Interaction Potential:                                       COULOMB
  HFX_INFO| EPS_SCHWARZ:                                                 1.0E-10
  HFX_INFO| EPS_SCHWARZ_FORCES                                           1.0E-08
  HFX_INFO| EPS_STORAGE_SCALING:                                         1.0E+00
  HFX_INFO| NBINS:                                                            64
  HFX_INFO| BLOCK_SIZE:                                                        1
  HFX_INFO| Number of periodic shells considered:                           NONE
  HFX_INFO| Number of periodic cells considered:                            NONE

 
 RI-RPA| using GPW style
 

 OVERLAP MATRIX CONDITION NUMBER
 1-Norm Condition Number (Estimate)
   CN : |A|*|A^-1|:  2.626E+001 *  1.700E+004   = 4.465E+005  Log(1-CN):  5.6498
 1-Norm and 2-Norm Condition Numbers using Diagonalization
   CN : |A|*|A^-1|:  2.626E+001 *  1.771E+004   = 4.651E+005  Log(1-CN):  5.6675
   CN : max/min ev:  1.181E+001 /  1.199E-004   = 9.853E+004  Log(2-CN):  4.9935

 Number of electrons:                                                         68
 Number of occupied orbitals:                                                 34
 Number of molecular orbitals:                                               159

 Number of orbital functions:                                                159
 Number of independent orbital functions:                                    159

 Extrapolation method: initial_guess

 Atomic guess: The first density matrix is obtained in terms of atomic orbitals
               and electronic configurations assigned to each atomic kind

 Guess for atomic kind: H

 Electronic structure
    Total number of core electrons                                          0.00
    Total number of valence electrons                                       1.00
    Total number of electrons                                               1.00
    Multiplicity                                                   not specified
    S      1.00


 *******************************************************************************
                  Iteration          Convergence                     Energy [au]
 *******************************************************************************
                          1        0.962691E-02                  -0.444368661081
                          2        0.109107E-02                  -0.444473520424
                          3        0.117094E-03                  -0.444476577889
                          4        0.851579E-07                  -0.444476596085

 Energy components [Hartree]           Total Energy ::           -0.444476596085
                                        Band Energy ::           -0.233451424826
                                     Kinetic Energy ::            0.431260327433
                                   Potential Energy ::           -0.875736923518
                                      Virial (-V/T) ::            2.030645686170
                                        Core Energy ::           -0.494218917327
                                          XC Energy ::           -0.231476335377
                                     Coulomb Energy ::            0.281218656618

 Orbital energies  State     L     Occupation   Energy[a.u.]          Energy[eV]

                       1     0          1.000      -0.233451           -6.352536


 Total Electron Density at R=0:                                         0.270947

 Guess for atomic kind: O

 Electronic structure
    Total number of core electrons                                          0.00
    Total number of valence electrons                                       8.00
    Total number of electrons                                               8.00
    Multiplicity                                                   not specified
    S      2.00  2.00
    P      4.00


 *******************************************************************************
                  Iteration          Convergence                     Energy [au]
 *******************************************************************************
                          1        0.735249                     -74.156692399509
                          2        0.374970                     -74.229519281434
                          3        0.137476E-02                 -74.265323889138
                          4        0.125117E-03                 -74.265324305080
                          5        0.240576E-05                 -74.265324309459
                          6        0.135447E-05                 -74.265324309460
                          7        0.538171E-07                 -74.265324309461

 Energy components [Hartree]           Total Energy ::          -74.265324309461
                                        Band Energy ::          -41.262202594008
                                     Kinetic Energy ::           72.991524336317
                                   Potential Energy ::         -147.256848645778
                                      Virial (-V/T) ::            2.017451340888
                                        Core Energy ::         -102.038650666845
                                          XC Energy ::           -7.668930692176
                                     Coulomb Energy ::           35.442257049561

 Orbital energies  State     L     Occupation   Energy[a.u.]          Energy[eV]

                       1     0          2.000     -18.982629         -516.543598
                       2     0          2.000      -0.922184          -25.093913

                       1     1          4.000      -0.363144           -9.881653


 Total Electron Density at R=0:                                       265.214148

 Guess for atomic kind: C

 Electronic structure
    Total number of core electrons                                          0.00
    Total number of valence electrons                                       6.00
    Total number of electrons                                               6.00
    Multiplicity                                                   not specified
    S      2.00  2.00
    P      2.00


 *******************************************************************************
                  Iteration          Convergence                     Energy [au]
 *******************************************************************************
                          1        0.181972E-01                 -37.327047058214
                          2        0.113690E-01                 -37.327375013153
                          3        0.204442E-03                 -37.327563854518
                          4        0.318580E-06                 -37.327563914839

 Energy components [Hartree]           Total Energy ::          -37.327563914839
                                        Band Energy ::          -20.907151793925
                                     Kinetic Energy ::           37.918401132701
                                   Potential Energy ::          -75.245965047540
                                      Virial (-V/T) ::            1.984418192745
                                        Core Energy ::          -50.466619839572
                                          XC Energy ::           -4.803795746723
                                     Coulomb Energy ::           17.942851671456

 Orbital energies  State     L     Occupation   Energy[a.u.]          Energy[eV]

                       1     0          2.000      -9.826687         -267.397747
                       2     0          2.000      -0.471401          -12.827469

                       1     1          2.000      -0.155488           -4.231050


 Total Electron Density at R=0:                                       107.717880
 Re-scaling the density matrix to get the right number of electrons
                  # Electrons              Trace(P)               Scaling factor
                           68                68.000                        1.000


 SCF WAVEFUNCTION OPTIMIZATION

  Step     Update method      Time    Convergence         Total energy    Change
  ------------------------------------------------------------------------------

  HFX_MEM_INFO| Est. max. program size before HFX [MiB]:                     905
  HFX_MEM_INFO| Number of cart. primitive ERI's calculated:          35056119048
  HFX_MEM_INFO| Number of sph. ERI's calculated:                        91626271
  HFX_MEM_INFO| Number of sph. ERI's stored in-core:                    91626271
  HFX_MEM_INFO| Number of sph. ERI's stored on disk:                           0
  HFX_MEM_INFO| Number of sph. ERI's calculated on the fly:                    0
  HFX_MEM_INFO| Total memory consumption ERI's RAM [MiB]:                    207
  HFX_MEM_INFO| Whereof max-vals [MiB]:                                        6
  HFX_MEM_INFO| Total compression factor ERI's RAM:                         3.39
  HFX_MEM_INFO| Total memory consumption ERI's disk [MiB]:                     0
  HFX_MEM_INFO| Total compression factor ERI's disk:                        0.00
  HFX_MEM_INFO| Size of density/Fock matrix [MiB]:                             0
  HFX_MEM_INFO| Size of buffers [MiB]:                                         0
  HFX_MEM_INFO| Est. max. program size after HFX  [MiB]:                    1381

     1 NoMix/Diag. 0.10E+00    4.3     1.83758479      -459.4393775536 -4.59E+02
     2 Broy./Diag. 0.10E+00    1.4     0.16738517      -453.9902970669  5.45E+00
     3 Broy./Diag. 0.10E+00    1.4     0.11302995      -453.5500347202  4.40E-01
     4 Broy./Diag. 0.10E+00    1.4     0.71411411      -454.8383143514 -1.29E+00
     5 Broy./Diag. 0.10E+00    1.4     0.05484852      -457.6588266859 -2.82E+00
     6 Broy./Diag. 0.10E+00    1.4     0.09436548      -457.9986865815 -3.40E-01
     7 Broy./Diag. 0.10E+00    1.4     0.11098003      -457.4601910476  5.38E-01
     8 Broy./Diag. 0.10E+00    1.4     0.02772977      -456.9483938965  5.12E-01
     9 Broy./Diag. 0.10E+00    1.5     0.01115646      -457.0120752779 -6.37E-02
    10 Broy./Diag. 0.10E+00    1.5     0.08242162      -457.2191587268 -2.07E-01
    11 Broy./Diag. 0.10E+00    1.4     0.02394981      -457.4870362648 -2.68E-01
    12 Broy./Diag. 0.10E+00    1.4     0.00874447      -457.5695322137 -8.25E-02
    13 Broy./Diag. 0.10E+00    1.4     0.04722322      -457.6085559057 -3.90E-02
    14 Broy./Diag. 0.10E+00    1.4     0.00671780      -457.7181003467 -1.10E-01
    15 Broy./Diag. 0.10E+00    1.4     0.00494212      -457.6931865274  2.49E-02
    16 Broy./Diag. 0.10E+00    1.4     0.02863209      -457.6882682735  4.92E-03
    17 Broy./Diag. 0.10E+00    1.4     0.00623898      -457.7444175552 -5.61E-02
    18 Broy./Diag. 0.10E+00    1.4     0.00217849      -457.7339892468  1.04E-02
    19 Broy./Diag. 0.10E+00    1.4     0.00977740      -457.7275573354  6.43E-03
    20 Broy./Diag. 0.10E+00    1.4     0.00771977      -457.7232141817  4.34E-03
    21 Broy./Diag. 0.10E+00    1.4     0.00278576      -457.6985684935  2.46E-02
    22 Broy./Diag. 0.10E+00    1.4     0.00497955      -457.7239685163 -2.54E-02
    23 Broy./Diag. 0.10E+00    1.4     0.00291914      -457.7386772937 -1.47E-02
    24 Broy./Diag. 0.10E+00    1.4     0.00273079      -457.7319423449  6.73E-03
    25 Broy./Diag. 0.10E+00    1.4     0.00222876      -457.7430811706 -1.11E-02
    26 Broy./Diag. 0.10E+00    1.4     0.00144284      -457.7463549135 -3.27E-03
    27 Broy./Diag. 0.10E+00    1.4     0.00354315      -457.7453972111  9.58E-04
    28 Broy./Diag. 0.10E+00    1.4     0.00322116      -457.7527565028 -7.36E-03
    29 Broy./Diag. 0.10E+00    1.4     0.00353482      -457.7469845299  5.77E-03
    30 Broy./Diag. 0.10E+00    1.4     0.00125790      -457.7404302717  6.55E-03
    31 Broy./Diag. 0.10E+00    1.4     0.00131152      -457.7404581353 -2.79E-05
    32 Broy./Diag. 0.10E+00    1.4     0.00070351      -457.7378068862  2.65E-03
    33 Broy./Diag. 0.10E+00    1.5     0.00027897      -457.7373924950  4.14E-04
    34 Broy./Diag. 0.10E+00    1.4     0.00052994      -457.7358589309  1.53E-03
    35 Broy./Diag. 0.10E+00    1.4     0.00127076      -457.7347148507  1.14E-03
    36 Broy./Diag. 0.10E+00    1.4     0.00039921      -457.7366722399 -1.96E-03
    37 Broy./Diag. 0.10E+00    1.4     0.00030926      -457.7369057327 -2.33E-04
    38 Broy./Diag. 0.10E+00    1.4     0.00058581      -457.7367743750  1.31E-04
    39 Broy./Diag. 0.10E+00    1.4     0.00127354      -457.7384605303 -1.69E-03
    40 Broy./Diag. 0.10E+00    1.4     0.00131648      -457.7396966634 -1.24E-03
    41 Broy./Diag. 0.10E+00    1.4     0.00020588      -457.7396432192  5.34E-05
    42 Broy./Diag. 0.10E+00    1.4     0.00028635      -457.7399239877 -2.81E-04
    43 Broy./Diag. 0.10E+00    1.4     0.00036058      -457.7393411586  5.83E-04
    44 Broy./Diag. 0.10E+00    1.4     0.00008313      -457.7383501416  9.91E-04
    45 Broy./Diag. 0.10E+00    1.4     0.00016466      -457.7382379085  1.12E-04
    46 Broy./Diag. 0.10E+00    1.4     0.00017210      -457.7380601997  1.78E-04
    47 Broy./Diag. 0.10E+00    1.4     0.00011852      -457.7375736585  4.87E-04
    48 Broy./Diag. 0.10E+00    1.4     0.00010867      -457.7372058788  3.68E-04
    49 Broy./Diag. 0.10E+00    1.4     0.00007520      -457.7370900624  1.16E-04
    50 Broy./Diag. 0.10E+00    1.5     0.00006284      -457.7371693559 -7.93E-05
    51 Broy./Diag. 0.10E+00    1.4     0.00010163      -457.7372798155 -1.10E-04
    52 Broy./Diag. 0.10E+00    1.4     0.00025632      -457.7372549134  2.49E-05
    53 Broy./Diag. 0.10E+00    1.4     0.00004886      -457.7372962099 -4.13E-05
    54 Broy./Diag. 0.10E+00    1.4     0.00000948      -457.7374279193 -1.32E-04
    55 Broy./Diag. 0.10E+00    1.4     0.00005502      -457.7373743070  5.36E-05
    56 Broy./Diag. 0.10E+00    1.4     0.00008174      -457.7374451213 -7.08E-05
    57 Broy./Diag. 0.10E+00    1.5     0.00002367      -457.7376557824 -2.11E-04
    58 Broy./Diag. 0.10E+00    1.5     0.00002636      -457.7375966692  5.91E-05
    59 Broy./Diag. 0.10E+00    1.4     0.00003590      -457.7374637149  1.33E-04
    60 Broy./Diag. 0.10E+00    1.4     0.00001751      -457.7374585598  5.16E-06
    61 Broy./Diag. 0.10E+00    1.4     0.00004243      -457.7375193247 -6.08E-05
    62 Broy./Diag. 0.10E+00    1.4     0.00000698      -457.7375359982 -1.67E-05
    63 Broy./Diag. 0.10E+00    1.4     0.00000481      -457.7375418810 -5.88E-06
    64 Broy./Diag. 0.10E+00    1.4     0.00001203      -457.7375593769 -1.75E-05
    65 Broy./Diag. 0.10E+00    1.4     0.00002043      -457.7375519383  7.44E-06
    66 Broy./Diag. 0.10E+00    1.4     0.00000444      -457.7375400228  1.19E-05
    67 Broy./Diag. 0.10E+00    1.4     0.00001842      -457.7375453305 -5.31E-06
    68 Broy./Diag. 0.10E+00    1.4     0.00000461      -457.7375318581  1.35E-05
    69 Broy./Diag. 0.10E+00    1.4     0.00000470      -457.7375180771  1.38E-05
    70 Broy./Diag. 0.10E+00    1.4     0.00000243      -457.7375221166 -4.04E-06
    71 Broy./Diag. 0.10E+00    1.4     0.00000494      -457.7375270998 -4.98E-06
    72 Broy./Diag. 0.10E+00    1.4     0.00000245      -457.7375283715 -1.27E-06
    73 Broy./Diag. 0.10E+00    1.5     0.00000205      -457.7375286050 -2.34E-07
    74 Broy./Diag. 0.10E+00    1.4     0.00000162      -457.7375261816  2.42E-06
    75 Broy./Diag. 0.10E+00    1.4     0.00000386      -457.7375259593  2.22E-07
    76 Broy./Diag. 0.10E+00    1.4     0.00000202      -457.7375262748 -3.16E-07
    77 Broy./Diag. 0.10E+00    1.4     0.00000048      -457.7375239491  2.33E-06

  *** SCF run converged in    77 steps ***


  Electronic density on regular grids:        -50.2079785690       17.7920214310
  Core density on regular grids:               68.0000000000       -0.0000000000
  Hard and soft densities (Lebedev):         -321.5552202054     -303.7631988104
  Total Rho_soft + Rho1_hard - Rho1_soft      -67.9999999640
  Total charge density (r-space):               0.0000000360
  Total Rho_soft + Rho0_soft (g-space):        -0.0000002928

  Overlap energy of the core charge distribution:               0.00000881342548
  Self energy of the core charge distribution:               -404.69063206886801
  Core Hamiltonian energy:                                    -61.86681020087507
  Hartree energy:                                             140.92002854620898
  Exchange-correlation energy:                                -18.29857992024335
  Hartree-Fock Exchange energy:                               -14.60199010693726

  GAPW| Exc from hard and soft atomic rho1:                   -27.58335844890937
  GAPW| local Eh = 1 center integrals:                        -71.61619056293731

  Total energy:                                              -457.73752394913595

 !-----------------------------------------------------------------------------!
                     Mulliken Population Analysis

 #  Atom  Element  Kind  Atomic population                           Net charge
       1     H        1          0.981231                              0.018769
       2     O        2          8.511960                             -0.511960
       3     H        1          0.768709                              0.231291
       4     O        2          8.548258                             -0.548258
       5     H        1          0.855396                              0.144604
       6     O        2          8.829862                             -0.829862
       7     H        1          0.221588                              0.778412
       8     C        3          5.888287                              0.111713
       9     H        1          0.903326                              0.096674
      10     C        3          5.996181                              0.003819
      11     H        1          0.992562                              0.007438
      12     C        3          5.734085                              0.265915
      13     C        3          5.985529                              0.014471
      14     H        1          0.859358                              0.140642
      15     C        3          5.992056                              0.007944
      16     H        1          1.210247                             -0.210247
      17     C        3          5.721365                              0.278635
 # Total charge                             68.000000                  0.000000

 !-----------------------------------------------------------------------------!

 !-----------------------------------------------------------------------------!
                           Hirshfeld Charges

  #Atom  Element  Kind  Ref Charge     Population                    Net charge
      1       H      1       1.000          0.507                         0.493
      2       O      2       8.000          8.450                        -0.450
      3       H      1       1.000          0.501                         0.499
      4       O      2       8.000          8.504                        -0.504
      5       H      1       1.000          0.519                         0.481
      6       O      2       8.000          8.713                        -0.713
      7       H      1       1.000          0.387                         0.613
      8       C      3       6.000          6.398                        -0.398
      9       H      1       1.000          0.515                         0.485
     10       C      3       6.000          6.855                        -0.855
     11       H      1       1.000          0.507                         0.493
     12       C      3       6.000          5.738                         0.262
     13       C      3       6.000          6.886                        -0.886
     14       H      1       1.000          0.509                         0.491
     15       C      3       6.000          6.894                        -0.894
     16       H      1       1.000          0.515                         0.485
     17       C      3       6.000          5.579                         0.421

  Total Charge                                                            0.025
 !-----------------------------------------------------------------------------!


 RI-RPA section
 --------------

  Used number of processes per group:                                          1
  Maximum allowed memory usage per MPI process:                      1024.00 MiB
  RI_INFO| Cholesky decomposition group size:                                 24
  RI_INFO| Number of groups for auxiliary basis functions                    192

  RI_INFO| RI metric:                                                    COULOMB
  RI_INFO| Number of auxiliary basis functions:                              877
  GENERAL_INFO| Number of basis functions:                                   159
  GENERAL_INFO| Number of occupied orbitals:                                  34
  GENERAL_INFO| Number of virtual orbitals:                                  125
  RI_INFO| Total memory for (ia|K) integrals:                          28.44 MiB
  RI_INFO| Total memory for G0W0-(nm|K) integrals:                    169.15 MiB
  RI_INFO| Total memory for (ij|K) integrals:                           7.73 MiB
  RI_INFO| Total memory for (ab|K) integrals:                         104.55 MiB
  RI_INFO| Group size for frequency integration:                             192
  INTEG_INFO| Clenshaw-Curtius quadrature
  INTEG_INFO| Number of integration points:                                  100
  INTEG_INFO| Number of integration points per RPA group:                    100
  MATRIX_INFO| Number row processes:                                           8
  MATRIX_INFO| Number column processes:                                       24
  MATRIX_INFO| Row block size:                                                54
  MATRIX_INFO| Column block size:                                             88
  INTEG_INFO| Scaling parameter:                                         0.20000
  INTEG_INFO| Started with Integration point   1 of 100
  INTEG_INFO| Started with Integration point   2 of 100
  INTEG_INFO| Started with Integration point   3 of 100
  INTEG_INFO| Started with Integration point   4 of 100
  INTEG_INFO| Started with Integration point   5 of 100
  INTEG_INFO| Started with Integration point   6 of 100
  INTEG_INFO| Started with Integration point   7 of 100
  INTEG_INFO| Started with Integration point   8 of 100
  INTEG_INFO| Started with Integration point   9 of 100
  INTEG_INFO| Started with Integration point  10 of 100
  INTEG_INFO| Started with Integration point  11 of 100
  INTEG_INFO| Started with Integration point  12 of 100
  INTEG_INFO| Started with Integration point  13 of 100
  INTEG_INFO| Started with Integration point  14 of 100
  INTEG_INFO| Started with Integration point  15 of 100
  INTEG_INFO| Started with Integration point  16 of 100
  INTEG_INFO| Started with Integration point  17 of 100
  INTEG_INFO| Started with Integration point  18 of 100
  INTEG_INFO| Started with Integration point  19 of 100
  INTEG_INFO| Started with Integration point  20 of 100
  INTEG_INFO| Started with Integration point  21 of 100
  INTEG_INFO| Started with Integration point  22 of 100
  INTEG_INFO| Started with Integration point  23 of 100
  INTEG_INFO| Started with Integration point  24 of 100
  INTEG_INFO| Started with Integration point  25 of 100
  INTEG_INFO| Started with Integration point  26 of 100
  INTEG_INFO| Started with Integration point  27 of 100
  INTEG_INFO| Started with Integration point  28 of 100
  INTEG_INFO| Started with Integration point  29 of 100
  INTEG_INFO| Started with Integration point  30 of 100
  INTEG_INFO| Started with Integration point  31 of 100
  INTEG_INFO| Started with Integration point  32 of 100
  INTEG_INFO| Started with Integration point  33 of 100
  INTEG_INFO| Started with Integration point  34 of 100
  INTEG_INFO| Started with Integration point  35 of 100
  INTEG_INFO| Started with Integration point  36 of 100
  INTEG_INFO| Started with Integration point  37 of 100
  INTEG_INFO| Started with Integration point  38 of 100
  INTEG_INFO| Started with Integration point  39 of 100
  INTEG_INFO| Started with Integration point  40 of 100
  INTEG_INFO| Started with Integration point  41 of 100
  INTEG_INFO| Started with Integration point  42 of 100
  INTEG_INFO| Started with Integration point  43 of 100
  INTEG_INFO| Started with Integration point  44 of 100
  INTEG_INFO| Started with Integration point  45 of 100
  INTEG_INFO| Started with Integration point  46 of 100
  INTEG_INFO| Started with Integration point  47 of 100
  INTEG_INFO| Started with Integration point  48 of 100
  INTEG_INFO| Started with Integration point  49 of 100
  INTEG_INFO| Started with Integration point  50 of 100
  INTEG_INFO| Started with Integration point  51 of 100
  INTEG_INFO| Started with Integration point  52 of 100
  INTEG_INFO| Started with Integration point  53 of 100
  INTEG_INFO| Started with Integration point  54 of 100
  INTEG_INFO| Started with Integration point  55 of 100
  INTEG_INFO| Started with Integration point  56 of 100
  INTEG_INFO| Started with Integration point  57 of 100
  INTEG_INFO| Started with Integration point  58 of 100
  INTEG_INFO| Started with Integration point  59 of 100
  INTEG_INFO| Started with Integration point  60 of 100
  INTEG_INFO| Started with Integration point  61 of 100
  INTEG_INFO| Started with Integration point  62 of 100
  INTEG_INFO| Started with Integration point  63 of 100
  INTEG_INFO| Started with Integration point  64 of 100
  INTEG_INFO| Started with Integration point  65 of 100
  INTEG_INFO| Started with Integration point  66 of 100
  INTEG_INFO| Started with Integration point  67 of 100
  INTEG_INFO| Started with Integration point  68 of 100
  INTEG_INFO| Started with Integration point  69 of 100
  INTEG_INFO| Started with Integration point  70 of 100
  INTEG_INFO| Started with Integration point  71 of 100
  INTEG_INFO| Started with Integration point  72 of 100
  INTEG_INFO| Started with Integration point  73 of 100
  INTEG_INFO| Started with Integration point  74 of 100
  INTEG_INFO| Started with Integration point  75 of 100
  INTEG_INFO| Started with Integration point  76 of 100
  INTEG_INFO| Started with Integration point  77 of 100
  INTEG_INFO| Started with Integration point  78 of 100
  INTEG_INFO| Started with Integration point  79 of 100
  INTEG_INFO| Started with Integration point  80 of 100
  INTEG_INFO| Started with Integration point  81 of 100
  INTEG_INFO| Started with Integration point  82 of 100
  INTEG_INFO| Started with Integration point  83 of 100
  INTEG_INFO| Started with Integration point  84 of 100
  INTEG_INFO| Started with Integration point  85 of 100
  INTEG_INFO| Started with Integration point  86 of 100
  INTEG_INFO| Started with Integration point  87 of 100
  INTEG_INFO| Started with Integration point  88 of 100
  INTEG_INFO| Started with Integration point  89 of 100
  INTEG_INFO| Started with Integration point  90 of 100
  INTEG_INFO| Started with Integration point  91 of 100
  INTEG_INFO| Started with Integration point  92 of 100
  INTEG_INFO| Started with Integration point  93 of 100
  INTEG_INFO| Started with Integration point  94 of 100
  INTEG_INFO| Started with Integration point  95 of 100
  INTEG_INFO| Started with Integration point  96 of 100
  INTEG_INFO| Started with Integration point  97 of 100
  INTEG_INFO| Started with Integration point  98 of 100
  INTEG_INFO| Started with Integration point  99 of 100
  INTEG_INFO| Started with Integration point 100 of 100
  PERFORMANCE| Average DGEMM flop rate (Gflops / MPI rank):                 5.00
  
  
  ******************************************************************************
  **                                                                          **
  **                        GW QUASIPARTICLE ENERGIES                         **
  **                                                                          **
  ******************************************************************************
   
   
  The GW quasiparticle energies are calculated according to: 
   
                      E_GW = E_SCF + Sigc(E_GW) + Sigx - vxc 
   
  Upper equation is solved self-consistently for E_GW, see Eq. (12) in J. Phys.
  Chem. Lett. 9, 306 (2018), doi: 10.1021/acs.jpclett.7b02740
  
  
  ------------
  G0W0 results
  ------------
   
  Molecular orbital   E_SCF (eV)       Sigc (eV)   Sigx-vxc (eV)       E_GW (eV)
     1 ( occ )         -530.0204         -0.8642        -36.5979       -567.4825
     2 ( occ )         -529.1818         -1.9660        -36.5879       -567.7357
     3 ( occ )         -528.7300         -2.1837        -36.5877       -567.5014
     4 ( occ )         -284.9244          7.7395        -26.4541       -303.6390
     5 ( occ )         -282.9866         -4.0523        -26.4658       -313.5047
     6 ( occ )         -280.7583        -11.8429        -26.4269       -319.0281
     7 ( occ )         -280.1370          3.1060        -26.4466       -303.4776
     8 ( occ )         -279.9855         30.7360        -26.4492       -275.6988
     9 ( occ )         -279.9775        -12.9958        -26.4511       -319.4243
    10 ( occ )          -32.9284          5.7767         -8.5541        -35.7057
    11 ( occ )          -30.8015          6.9155         -8.3717        -32.2577
    12 ( occ )          -30.4731          5.5014         -8.2779        -33.2496
    13 ( occ )          -24.6543          5.5703         -6.6741        -25.7581
    14 ( occ )          -21.6508          4.6445         -6.0140        -23.0203
    15 ( occ )          -20.7667          4.4911         -5.8195        -22.0952
    16 ( occ )          -18.7858          3.6435         -5.2007        -20.3430
    17 ( occ )          -16.9833          3.1529         -4.7669        -18.5973
    18 ( occ )          -15.7286          2.8841         -4.5227        -17.3672
    19 ( occ )          -15.2900          2.7647         -4.4116        -16.9369
    20 ( occ )          -14.5091          3.7391         -5.2363        -16.0063
    21 ( occ )          -13.9496          2.7327         -4.3208        -15.5377
    22 ( occ )          -13.6458          2.7615         -4.1739        -15.0581
    23 ( occ )          -13.1153          2.6415         -4.2716        -14.7454
    24 ( occ )          -12.5543          2.2840         -3.8237        -14.0939
    25 ( occ )          -12.4879          2.0964         -3.8511        -14.2427
    26 ( occ )          -11.9862          2.5732         -4.1291        -13.5422
    27 ( occ )          -11.5534          2.4463         -3.8999        -13.0070
    28 ( occ )          -10.9756          1.8412         -3.3881        -12.5226
    29 ( occ )          -10.6782          1.6944         -3.2380        -12.2217
    30 ( occ )          -10.2471          1.8925         -3.3439        -11.6985
    31 ( occ )          -10.1659          1.3615         -3.1665        -11.9708
    32 ( occ )          -10.1028          2.1496         -3.4933        -11.4465
    33 ( occ )           -8.9989          2.7193         -3.9770        -10.2566
    34 ( occ )           -7.5877          2.4217         -3.6228         -8.7888
    35 ( vir )           -1.2221         -1.6154          4.5082          1.6706
    36 ( vir )           -0.8550         -1.6728          4.7552          2.2275
    37 ( vir )           -0.1021         -0.6736          2.2037          1.4280
    38 ( vir )            0.2645         -0.6415          2.1596          1.7826
    39 ( vir )            0.6498         -0.6158          1.9066          1.9407
    40 ( vir )            0.9298         -0.6288          1.9256          2.2266
    41 ( vir )            1.2307         -0.5984          1.9260          2.5583
    42 ( vir )            1.5572         -0.6213          1.9076          2.8435
    43 ( vir )            1.7314         -0.5964          1.8742          3.0092
    44 ( vir )            2.0595         -0.5793          1.8457          3.3258
    45 ( vir )            2.2360         -0.6402          1.9940          3.5898
    46 ( vir )            2.3921         -0.6233          2.0732          3.8420
    47 ( vir )            2.8202         -0.4893          1.8587          4.1897
    48 ( vir )            3.0091         -0.6312          2.0240          4.4019
    49 ( vir )            3.0879         -0.5836          2.0055          4.5098
    50 ( vir )            3.2184         -0.7973          2.3115          4.7326
    51 ( vir )            3.3418         -0.7582          2.2813          4.8649
    52 ( vir )            3.7777         -0.9527          2.6693          5.4942
    53 ( vir )            4.1083         -0.7396          2.2240          5.5926
    54 ( vir )            4.1995         -0.7014          2.2486          5.7468
    55 ( vir )            4.5123         -0.9207          2.6279          6.2195
    56 ( vir )            4.7008         -1.4262          3.6505          6.9251
    57 ( vir )            4.8918         -1.0875          2.9467          6.7510
    58 ( vir )            5.0421         -0.8359          2.4605          6.6667
    59 ( vir )            5.2083         -0.6918          2.1465          6.6630
    60 ( vir )            5.3535         -1.0605          3.0333          7.3263
    61 ( vir )            5.7012         -0.7690          2.3159          7.2481
    62 ( vir )            5.9432         -0.8123          2.3492          7.4801
    63 ( vir )            6.1082         -1.4673          3.5861          8.2271
    64 ( vir )            6.2138         -1.0972          2.9417          8.0583
    65 ( vir )            6.3128         -1.2522          3.0871          8.1477
    66 ( vir )            6.4069         -1.2095          3.1211          8.3185
    67 ( vir )            6.5682         -0.6155          2.0491          8.0019
    68 ( vir )            6.7421         -1.1564          3.0162          8.6019
    69 ( vir )            6.8461         -1.1619          2.9816          8.6658
    70 ( vir )            6.9874         -1.1826          3.0461          8.8509
    71 ( vir )            7.3342         -0.9139          2.5761          8.9964
    72 ( vir )            7.3994         -1.2028          3.1320          9.3286
    73 ( vir )            7.6904         -1.5208          3.5280          9.6976
    74 ( vir )            7.8322         -1.0102          2.7905          9.6125
    75 ( vir )            8.2865         -2.0143          4.4518         10.7239
    76 ( vir )            8.4251         -1.2933          3.2667         10.3985
    77 ( vir )            8.7130         -1.5409          3.6894         10.8615
    78 ( vir )            9.0302         -1.4457          3.4086         10.9931
    79 ( vir )            9.3101         -2.3450          4.8893         11.8543
    80 ( vir )            9.4685         -1.9004          4.0828         11.6509
    81 ( vir )            9.7802         -1.8038          4.1659         12.1423
    82 ( vir )            9.8627         -1.4431          3.5861         12.0058
    83 ( vir )           10.5183         -1.2466          3.1666         12.4383
    84 ( vir )           11.0149         -1.6301          3.8209         13.2057
    85 ( vir )           11.8469         -1.4759          3.5125         13.8834
    86 ( vir )           12.2873         -1.7790          3.8931         14.4014
    87 ( vir )           12.6492         -1.8629          4.3998         15.1861
    88 ( vir )           12.9539         -2.1626          4.6846         15.4760
    89 ( vir )           13.2407         -1.9366          4.2761         15.5801
    90 ( vir )           13.6179         -2.0891          4.8094         16.3382
    91 ( vir )           14.3175         -1.8097          4.4575         16.9653
    92 ( vir )           14.5680         -2.1070          4.6392         17.1001
    93 ( vir )           15.6645         -2.1226          4.9930         18.5349
    94 ( vir )           16.1079         -2.2008          4.9982         18.9053
    95 ( vir )           16.8202         -2.3632          5.1862         19.6432
    96 ( vir )           16.9869         -2.0729          4.8011         19.7151
    97 ( vir )           17.7584         -1.8838          4.7544         20.6289
    98 ( vir )           18.3172         -2.2904          5.2513         21.2780
    99 ( vir )           18.5113         -2.1369          4.8840         21.2584
   100 ( vir )           18.7323         -2.4985          5.2665         21.5003
   101 ( vir )           19.0826         -1.9316          4.6943         21.8453
   102 ( vir )           19.4270         -2.2763          5.1424         22.2931
   103 ( vir )           19.9625         -2.0879          4.7667         22.6413
   104 ( vir )           20.1699         -1.9843          4.6901         22.8756
   105 ( vir )           20.6881         -2.2279          5.2223         23.6826
   106 ( vir )           21.2818         -2.3367          5.0741         24.0191
   107 ( vir )           21.3759         -2.4714          5.0927         23.9973
   108 ( vir )           21.6582         -2.5404          5.2089         24.3267
   109 ( vir )           21.8909         -2.6288          5.2083         24.4703
   110 ( vir )           22.4285         -2.9911          5.3680         24.8055
   111 ( vir )           22.9062         -2.9942          5.4496         25.3616
   112 ( vir )           23.0993         -2.1453          4.7505         25.7046
   113 ( vir )           23.6429         -2.7408          5.2322         26.1342
   114 ( vir )           23.7860         -2.7256          5.0995         26.1599
   115 ( vir )           24.4345         -2.5371          5.0476         26.9449
   116 ( vir )           24.5609         -2.5533          5.4130         27.4206
   117 ( vir )           24.8850         -2.7235          5.2934         27.4549
   118 ( vir )           24.9314         -2.8087          5.5358         27.6585
   119 ( vir )           25.3182         -3.2767          5.9837         28.0252
   120 ( vir )           26.1451         -2.5475          5.3005         28.8980
   121 ( vir )           26.3418         -2.4730          5.1685         29.0374
   122 ( vir )           26.7613         -2.7677          5.4964         29.4900
   123 ( vir )           27.1314         -2.8402          5.4966         29.7878
   124 ( vir )           27.6632         -2.9893          5.3992         30.0731
   125 ( vir )           28.5229         -3.3443          5.9078         31.0864
   126 ( vir )           28.7544         -3.1624          5.7064         31.2984
   127 ( vir )           29.1564         -3.4565          5.6877         31.3875
   128 ( vir )           29.5175         -2.8985          5.4194         32.0384
   129 ( vir )           30.1682         -3.3234          5.8400         32.6849
   130 ( vir )           30.3848         -2.9665          5.5099         32.9282
   131 ( vir )           31.4880         -3.4531          5.9196         33.9546
   132 ( vir )           32.1677         -3.5195          5.8375         34.4857
   133 ( vir )           32.3905         -3.4116          5.8007         34.7796
   134 ( vir )           32.8775         -3.3448          5.9929         35.5256
   135 ( vir )           33.0327         -3.4901          5.9423         35.4849
   136 ( vir )           34.6809         -4.0784          6.3187         36.9212
   137 ( vir )           34.8530         -3.7700          6.0192         37.1023
   138 ( vir )           35.7416         -3.7923          5.9925         37.9417
   139 ( vir )           38.2103         -4.4409          6.4002         40.1696
   140 ( vir )           39.3100         -4.5243          6.1207         40.9064
   141 ( vir )           39.6935         -4.4695          6.5771         41.8011
   142 ( vir )           41.0495         -4.0363          6.0513         43.0645
   143 ( vir )           41.3656         -5.4259          7.0248         42.9644
   144 ( vir )           42.0565         -5.2349          6.6173         43.4388
   145 ( vir )           45.4243         -5.3629          7.1376         47.1989
   146 ( vir )           46.7813         -5.0579          7.6282         49.3516
   147 ( vir )           47.9773         -6.1163          7.8586         49.7195
   148 ( vir )           49.1716         -1.7428          7.6639         55.0928
   149 ( vir )           50.8082         -3.8115          7.9026         54.8993
   150 ( vir )           54.1924         -1.8514          6.9020         59.2431
   151 ( vir )           55.9293          2.8154          6.0396         64.7843
   152 ( vir )           60.0422          3.8145          7.7172         71.5738
   153 ( vir )           64.8819          2.6976          7.8438         75.4233
   154 ( vir )           65.2090          2.9853          7.8184         76.0128
   155 ( vir )           69.3712          2.0982          7.5380         79.0074
   156 ( vir )           71.3706          2.2060          8.1054         81.6820
   157 ( vir )           88.2876          0.9221          8.3314         97.5412
   158 ( vir )          108.3637          0.6036          9.1412        118.1085
   159 ( vir )          117.7418          0.6217          9.8503        128.2138
   
  G0W0 HOMO-LUMO gap (eV)                                                10.2167
  
  ------------------------------------------------------------------------------
  
 *******************************************************************************
 **                                                                           **
 **           Bethe Salpeter equation (BSE) for excitation energies           **
 **               solved without Tamm-Dancoff approximation (TDA)             **
 **                                                                           **
 *******************************************************************************
  
 BSE| No cutoff given for occupied orbitals
 BSE| No cutoff given for empty orbitals
 BSE| First occupied index                                                     1
 BSE| Last empty index (not MO index!)                                       125
 BSE| Energy of first occupied index [eV]                               -567.482
 BSE| Energy of last empty index [eV]                                    128.214
 BSE| Energy difference of first occupied index to HOMO [eV]             558.694
 BSE| Energy difference of last empty index to LUMO [eV]                 126.543
 BSE| Number of GW-corrected occupied MOs                                     34
 BSE| Number of GW-corrected empty MOs                                       125
 BSE|
 BSE| No truncation of BSE matrices applied
 BSE|
 BSE| Total peak memory estimate from BSE [GB]                         1.346E+00
 BSE| Peak memory estimate per MPI rank from BSE [GB]                      0.007
 BSE|
 BSE| Diagonalizing aux. matrix with size of A. This will take around 0.E+00 s.
 BSE| Diagonalizing C. This will take around 0.E+00 s.
 BSE|
 BSE|
 BSE| **************************************************************************
 BSE| *      Full ("ABBA") Bethe Salpeter equation (BSE) (i.e. without TDA)    *
 BSE| **************************************************************************
 BSE|
 BSE| The excitations are calculated by diagonalizing the BSE without the TDA:
 BSE|
 BSE|                |A B| |X^n|       |1  0| |X^n|
 BSE|                |B A| |Y^n| = Ω^n |0 -1| |Y^n|
 BSE|
 BSE| i.e. in index notation:
 BSE|
 BSE|   sum_jb ( A_ia,jb   X_jb^n + B_ia,jb   Y_jb^n ) = Ω^n X_ia^n
 BSE| - sum_jb ( B_ia,jb   X_jb^n + A_ia,jb   Y_jb^n ) = Ω^n Y_ia^n
 BSE|
 BSE|
 BSE| i,j:       occupied molecular orbitals, i.e. state in          [   1,  34]
 BSE| a,b:       unoccupied molecular orbitals, i.e. state in        [  35, 159]
 BSE| n:         Excitation index
 BSE|
 BSE| A_ia,jb = (ε_a-ε_i) δ_ij δ_ab + α * v_ia,jb - W_ij,ab
 BSE| B_ia,jb = α * v_ia,jb - W_ib,aj
 BSE|
 BSE| prelim Ref.: Eqs. (24-27),(30),(35)
 BSE| in PRB 92,045209 (2015); http://dx.doi.org/10.1103/PhysRevB.92.045209 .
 BSE|
 BSE| The BSE is solved for Ω^n and X_ia^n as a hermitian problem, e.g. Eq.(42)
 BSE| in PRB 92,045209 (2015); http://dx.doi.org/10.1103/PhysRevB.92.045209 .
 BSE|
 BSE| ε_...:                 GW quasiparticle energy
 BSE| δ_...:                 Kronecker delta
 BSE| α:                     spin-dependent factor
 BSE| v_...:                 Electron-hole exchange interaction
 BSE| W_... = 1/ϵ v_...:     Direct interaction screened by 
 BSE|                        dielectric function ϵ(ω=0)
 BSE|
 BSE|
 BSE| The spin-dependent factor is for the requested Singlet is α = 2.0
 BSE|
 BSE| Excitation energies from solving the BSE without the TDA:
 BSE|
 BSE|     Excitation n   Spin Config       TDA/ABBA   Excitation energy Ω^n (eV)
 BSE|                1       Singlet         -ABBA-                       3.5192
 BSE|                2       Singlet         -ABBA-                       5.1139
 BSE|                3       Singlet         -ABBA-                       6.1728
 BSE|                4       Singlet         -ABBA-                       6.7121
 BSE|                5       Singlet         -ABBA-                       6.8067
 BSE|                6       Singlet         -ABBA-                       6.8596
 BSE|                7       Singlet         -ABBA-                       7.0041
 BSE|                8       Singlet         -ABBA-                       7.1087
 BSE|                9       Singlet         -ABBA-                       7.5322
 BSE|               10       Singlet         -ABBA-                       7.5920
 BSE|               11       Singlet         -ABBA-                       7.6865
 BSE|               12       Singlet         -ABBA-                       7.7633
 BSE|               13       Singlet         -ABBA-                       7.8206
 BSE|               14       Singlet         -ABBA-                       7.9282
 BSE|               15       Singlet         -ABBA-                       8.0560
 BSE|               16       Singlet         -ABBA-                       8.1172
 BSE|               17       Singlet         -ABBA-                       8.1541
 BSE|               18       Singlet         -ABBA-                       8.1844
 BSE|               19       Singlet         -ABBA-                       8.3116
 BSE|               20       Singlet         -ABBA-                       8.4364
 BSE|               21       Singlet         -ABBA-                       8.4763
 BSE|               22       Singlet         -ABBA-                       8.5160
 BSE|               23       Singlet         -ABBA-                       8.5556
 BSE|               24       Singlet         -ABBA-                       8.5941
 BSE|               25       Singlet         -ABBA-                       8.7181
 BSE|
 BSE| Single-particle transitions are built up by (de-)excitations,
 BSE| which we denote by
 BSE|
 BSE|              =>        for excitations, i.e. entries of X_ia^n,
 BSE|              <=        for deexcitations, i.e. entries of Y_ia^n.
 BSE|
 BSE| The following single-particle transitions have significant contributions,
 BSE| i.e. |X_ia^n| > 0.100 or |Y_ia^n| > 0.100, respectively :
 BSE|         -- Quick reminder: HOMO i =   34 and LUMO a =   35 --
 BSE|
 BSE| Excitation n           i =>/<=     a      TDA/ABBA       |X_ia^n|/|Y_ia^n|
 BSE|
 BSE|            1          34    =>    35        -ABBA-                  0.6468
 BSE|            1          34    =>    36        -ABBA-                  0.2070
 BSE|
 BSE|            2          33    =>    35        -ABBA-                  0.2832
 BSE|            2          33    =>    36        -ABBA-                  0.6207
 BSE|
 BSE|            3          34    =>    37        -ABBA-                  0.4478
 BSE|            3          34    =>    38        -ABBA-                  0.4528
 BSE|            3          34    =>    40        -ABBA-                  0.1894
 BSE|            3          34    =>    41        -ABBA-                  0.1322
 BSE|
 BSE|            4          32    =>    36        -ABBA-                  0.1592
 BSE|            4          33    =>    37        -ABBA-                  0.4901
 BSE|            4          33    =>    38        -ABBA-                  0.3118
 BSE|            4          34    =>    36        -ABBA-                  0.2173
 BSE|
 BSE|            5          33    =>    37        -ABBA-                  0.1703
 BSE|            5          34    =>    35        -ABBA-                  0.1988
 BSE|            5          34    =>    36        -ABBA-                  0.2877
 BSE|            5          34    =>    39        -ABBA-                  0.5120
 BSE|            5          34    =>    40        -ABBA-                  0.1986
 BSE|
 BSE|            6          33    =>    37        -ABBA-                  0.1399
 BSE|            6          34    =>    36        -ABBA-                  0.5339
 BSE|            6          34    =>    39        -ABBA-                  0.3466
 BSE|            6          34    =>    40        -ABBA-                  0.1005
 BSE|            6          34    =>    41        -ABBA-                  0.1008
 BSE|
 BSE|            7          34    =>    37        -ABBA-                  0.3697
 BSE|            7          34    =>    39        -ABBA-                  0.1746
 BSE|            7          34    =>    40        -ABBA-                  0.3955
 BSE|            7          34    =>    41        -ABBA-                  0.1878
 BSE|            7          34    =>    43        -ABBA-                  0.2140
 BSE|            7          34    =>    44        -ABBA-                  0.1426
 BSE|            7          34    =>    45        -ABBA-                  0.1320
 BSE|
 BSE|            8          34    =>    36        -ABBA-                  0.1010
 BSE|            8          34    =>    37        -ABBA-                  0.2219
 BSE|            8          34    =>    38        -ABBA-                  0.3001
 BSE|            8          34    =>    39        -ABBA-                  0.1205
 BSE|            8          34    =>    40        -ABBA-                  0.4244
 BSE|            8          34    =>    41        -ABBA-                  0.3390
 BSE|
 BSE|            9          29    =>    37        -ABBA-                  0.1357
 BSE|            9          29    =>    38        -ABBA-                  0.1059
 BSE|            9          30    =>    37        -ABBA-                  0.2405
 BSE|            9          30    =>    38        -ABBA-                  0.1808
 BSE|            9          32    =>    37        -ABBA-                  0.4208
 BSE|            9          32    =>    38        -ABBA-                  0.2931
 BSE|            9          34    =>    38        -ABBA-                  0.1080
 BSE|            9          34    =>    41        -ABBA-                  0.1598
 BSE|            9          34    =>    42        -ABBA-                  0.1293
 BSE|
 BSE|           10          32    =>    37        -ABBA-                  0.1275
 BSE|           10          34    =>    38        -ABBA-                  0.1614
 BSE|           10          34    =>    42        -ABBA-                  0.6099
 BSE|
 BSE|           11          30    =>    36        -ABBA-                  0.1945
 BSE|           11          32    =>    35        -ABBA-                  0.2506
 BSE|           11          32    =>    36        -ABBA-                  0.2821
 BSE|           11          33    =>    35        -ABBA-                  0.2104
 BSE|           11          33    =>    37        -ABBA-                  0.2541
 BSE|           11          33    =>    38        -ABBA-                  0.1354
 BSE|           11          34    =>    37        -ABBA-                  0.1100
 BSE|           11          34    =>    38        -ABBA-                  0.1594
 BSE|           11          34    =>    41        -ABBA-                  0.2034
 BSE|           11          34    =>    43        -ABBA-                  0.1129
 BSE|           11          34    =>    46        -ABBA-                  0.1040
 BSE|
 BSE|           12          30    =>    35        -ABBA-                  0.1632
 BSE|           12          32    =>    36        -ABBA-                  0.2310
 BSE|           12          33    =>    35        -ABBA-                  0.1023
 BSE|           12          33    =>    37        -ABBA-                  0.1577
 BSE|           12          33    =>    38        -ABBA-                  0.1077
 BSE|           12          34    =>    37        -ABBA-                  0.1155
 BSE|           12          34    =>    38        -ABBA-                  0.1632
 BSE|           12          34    =>    40        -ABBA-                  0.1031
 BSE|           12          34    =>    41        -ABBA-                  0.3122
 BSE|           12          34    =>    42        -ABBA-                  0.1768
 BSE|           12          34    =>    43        -ABBA-                  0.2849
 BSE|           12          34    =>    45        -ABBA-                  0.1041
 BSE|           12          34    =>    46        -ABBA-                  0.1709
 BSE|
 BSE|           13          34    =>    37        -ABBA-                  0.2165
 BSE|           13          34    =>    38        -ABBA-                  0.2341
 BSE|           13          34    =>    40        -ABBA-                  0.1529
 BSE|           13          34    =>    41        -ABBA-                  0.1195
 BSE|           13          34    =>    42        -ABBA-                  0.1218
 BSE|           13          34    =>    43        -ABBA-                  0.5193
 BSE|
 BSE|           14          28    =>    35        -ABBA-                  0.1585
 BSE|           14          30    =>    35        -ABBA-                  0.2258
 BSE|           14          32    =>    35        -ABBA-                  0.1369
 BSE|           14          32    =>    36        -ABBA-                  0.1669
 BSE|           14          33    =>    35        -ABBA-                  0.4834
 BSE|           14          33    =>    36        -ABBA-                  0.2264
 BSE|           14          33    =>    37        -ABBA-                  0.1422
 BSE|
 BSE|           15          28    =>    35        -ABBA-                  0.1031
 BSE|           15          30    =>    35        -ABBA-                  0.4256
 BSE|           15          30    =>    36        -ABBA-                  0.1052
 BSE|           15          32    =>    35        -ABBA-                  0.2828
 BSE|           15          33    =>    35        -ABBA-                  0.2769
 BSE|           15          33    =>    36        -ABBA-                  0.1142
 BSE|           15          34    =>    41        -ABBA-                  0.1033
 BSE|           15          34    =>    44        -ABBA-                  0.1608
 BSE|           15          34    =>    45        -ABBA-                  0.1074
 BSE|           15          34    =>    46        -ABBA-                  0.1114
 BSE|
 BSE|           16          27    =>    35        -ABBA-                  0.1352
 BSE|           16          30    =>    36        -ABBA-                  0.1232
 BSE|           16          32    =>    35        -ABBA-                  0.1658
 BSE|           16          32    =>    36        -ABBA-                  0.1463
 BSE|           16          33    =>    38        -ABBA-                  0.3092
 BSE|           16          33    =>    40        -ABBA-                  0.1594
 BSE|           16          33    =>    41        -ABBA-                  0.2064
 BSE|           16          33    =>    44        -ABBA-                  0.1112
 BSE|           16          34    =>    43        -ABBA-                  0.1236
 BSE|           16          34    =>    44        -ABBA-                  0.3012
 BSE|           16          34    =>    45        -ABBA-                  0.1371
 BSE|
 BSE|           17          21    =>    35        -ABBA-                  0.1084
 BSE|           17          23    =>    35        -ABBA-                  0.1077
 BSE|           17          27    =>    35        -ABBA-                  0.5701
 BSE|           17          27    =>    36        -ABBA-                  0.1580
 BSE|           17          28    =>    35        -ABBA-                  0.1656
 BSE|
 BSE|           18          30    =>    35        -ABBA-                  0.1448
 BSE|           18          32    =>    36        -ABBA-                  0.1502
 BSE|           18          33    =>    38        -ABBA-                  0.2204
 BSE|           18          33    =>    40        -ABBA-                  0.1152
 BSE|           18          33    =>    41        -ABBA-                  0.1677
 BSE|           18          34    =>    43        -ABBA-                  0.1258
 BSE|           18          34    =>    44        -ABBA-                  0.4071
 BSE|           18          34    =>    45        -ABBA-                  0.1592
 BSE|           18          34    =>    49        -ABBA-                  0.1339
 BSE|
 BSE|           19          33    =>    39        -ABBA-                  0.6012
 BSE|           19          33    =>    40        -ABBA-                  0.1543
 BSE|           19          33    =>    42        -ABBA-                  0.1106
 BSE|           19          33    =>    43        -ABBA-                  0.1267
 BSE|           19          33    =>    45        -ABBA-                  0.1163
 BSE|           19          34    =>    45        -ABBA-                  0.1031
 BSE|
 BSE|           20          25    =>    36        -ABBA-                  0.1151
 BSE|           20          26    =>    35        -ABBA-                  0.1252
 BSE|           20          26    =>    36        -ABBA-                  0.2617
 BSE|           20          27    =>    36        -ABBA-                  0.1458
 BSE|           20          28    =>    36        -ABBA-                  0.2279
 BSE|           20          29    =>    35        -ABBA-                  0.1485
 BSE|           20          29    =>    36        -ABBA-                  0.1150
 BSE|           20          30    =>    36        -ABBA-                  0.1127
 BSE|           20          31    =>    35        -ABBA-                  0.3152
 BSE|           20          31    =>    36        -ABBA-                  0.1014
 BSE|           20          34    =>    44        -ABBA-                  0.1705
 BSE|           20          34    =>    45        -ABBA-                  0.1810
 BSE|           20          34    =>    46        -ABBA-                  0.1310
 BSE|
 BSE|           21          26    =>    35        -ABBA-                  0.1654
 BSE|           21          28    =>    35        -ABBA-                  0.1435
 BSE|           21          28    =>    36        -ABBA-                  0.1359
 BSE|           21          29    =>    35        -ABBA-                  0.2534
 BSE|           21          31    =>    35        -ABBA-                  0.1068
 BSE|           21          33    =>    39        -ABBA-                  0.1087
 BSE|           21          34    =>    44        -ABBA-                  0.2367
 BSE|           21          34    =>    45        -ABBA-                  0.3655
 BSE|           21          34    =>    46        -ABBA-                  0.1387
 BSE|           21          34    =>    47        -ABBA-                  0.1584
 BSE|           21          34    =>    49        -ABBA-                  0.1000
 BSE|           21          34    =>    51        -ABBA-                  0.1141
 BSE|
 BSE|           22          24    =>    35        -ABBA-                  0.1413
 BSE|           22          26    =>    36        -ABBA-                  0.2009
 BSE|           22          28    =>    35        -ABBA-                  0.3614
 BSE|           22          29    =>    35        -ABBA-                  0.3287
 BSE|           22          29    =>    36        -ABBA-                  0.1342
 BSE|           22          33    =>    40        -ABBA-                  0.1110
 BSE|           22          34    =>    44        -ABBA-                  0.1073
 BSE|           22          34    =>    45        -ABBA-                  0.1403
 BSE|
 BSE|           23          29    =>    35        -ABBA-                  0.1469
 BSE|           23          31    =>    35        -ABBA-                  0.2717
 BSE|           23          33    =>    37        -ABBA-                  0.1658
 BSE|           23          33    =>    38        -ABBA-                  0.2180
 BSE|           23          33    =>    39        -ABBA-                  0.1652
 BSE|           23          33    =>    40        -ABBA-                  0.3638
 BSE|           23          33    =>    42        -ABBA-                  0.1217
 BSE|           23          33    =>    44        -ABBA-                  0.1737
 BSE|           23          33    =>    45        -ABBA-                  0.1387
 BSE|           23          34    =>    45        -ABBA-                  0.1254
 BSE|
 BSE|           24          26    =>    36        -ABBA-                  0.1153
 BSE|           24          28    =>    36        -ABBA-                  0.1557
 BSE|           24          29    =>    35        -ABBA-                  0.1636
 BSE|           24          29    =>    36        -ABBA-                  0.1030
 BSE|           24          31    =>    35        -ABBA-                  0.4889
 BSE|           24          33    =>    38        -ABBA-                  0.1274
 BSE|           24          33    =>    40        -ABBA-                  0.2076
 BSE|           24          33    =>    45        -ABBA-                  0.1032
 BSE|
 BSE|           25          26    =>    35        -ABBA-                  0.1029
 BSE|           25          29    =>    35        -ABBA-                  0.1273
 BSE|           25          31    =>    35        -ABBA-                  0.1248
 BSE|           25          32    =>    35        -ABBA-                  0.1362
 BSE|           25          34    =>    38        -ABBA-                  0.1186
 BSE|           25          34    =>    41        -ABBA-                  0.2619
 BSE|           25          34    =>    45        -ABBA-                  0.2513
 BSE|           25          34    =>    46        -ABBA-                  0.3918
 BSE|           25          34    =>    48        -ABBA-                  0.1066
 BSE|           25          34    =>    49        -ABBA-                  0.1638
 BSE|           25          34    =>    50        -ABBA-                  0.1045
 BSE|           25          34    =>    54        -ABBA-                  0.1004
 BSE|
 BSE| Transition moments d_r^n (with r∈(x,y,z), in atomic units)
 BSE| and oscillator strength f^n of excitation level n are obtained from
 BSE|
 BSE|    d_r^n = sum_ia sqrt(2) < ψ_i | r | ψ_a > ( X_ia^n + Y_ia^n )
 BSE|
 BSE|        f^n = 2/3 * Ω^n sum_r∈(x,y,z) ( d_r^n )^2
 BSE|
 BSE| where we introduced
 BSE|
 BSE| ψ_i:   occupied molecular orbitals,
 BSE| ψ_a:   empty molecular orbitals and
 BSE|   r:   position operator.
 BSE|
 BSE| prelim Ref.: Eqs. (23), (24)
 BSE| in J. Chem. Phys. 152, 044105 (2020); https://doi.org/10.1063/1.5123290
 BSE|
 BSE| Optical properties from solving the BSE without the TDA:
 BSE|
 BSE|  Excitation n  TDA/ABBA        d_x^n     d_y^n     d_z^n Osc. strength f^n
 BSE|             1    -ABBA-       -0.033    -0.005     0.007             0.000
 BSE|             2    -ABBA-        0.031    -0.017     0.019             0.000
 BSE|             3    -ABBA-       -0.194     0.253    -0.114             0.017
 BSE|             4    -ABBA-       -0.609     0.015     0.033             0.061
 BSE|             5    -ABBA-        0.048    -0.050     0.060             0.001
 BSE|             6    -ABBA-       -0.055     0.017     0.002             0.001
 BSE|             7    -ABBA-        0.140     0.134    -0.069             0.007
 BSE|             8    -ABBA-        0.064     0.038    -0.052             0.001
 BSE|             9    -ABBA-       -0.002    -0.009    -0.006             0.000
 BSE|            10    -ABBA-       -0.114     0.315    -0.280             0.035
 BSE|            11    -ABBA-        0.515     0.379     0.223             0.086
 BSE|            12    -ABBA-        0.051    -0.295    -0.027             0.017
 BSE|            13    -ABBA-       -0.168    -0.132    -0.171             0.014
 BSE|            14    -ABBA-        0.243     0.108    -0.126             0.017
 BSE|            15    -ABBA-        0.333     0.363    -0.076             0.049
 BSE|            16    -ABBA-        0.262     0.138     0.114             0.020
 BSE|            17    -ABBA-       -0.075    -0.022     0.082             0.003
 BSE|            18    -ABBA-       -0.276     0.282     0.141             0.035
 BSE|            19    -ABBA-       -0.039    -0.225    -0.271             0.026
 BSE|            20    -ABBA-        0.248     0.007     0.000             0.013
 BSE|            21    -ABBA-       -0.000     0.140    -0.036             0.004
 BSE|            22    -ABBA-       -0.012    -0.060    -0.058             0.001
 BSE|            23    -ABBA-        0.080     0.087    -0.176             0.009
 BSE|            24    -ABBA-       -0.149    -0.270    -0.049             0.021
 BSE|            25    -ABBA-       -0.407    -0.324     0.143             0.062
 BSE|
 BSE| Check for Thomas-Reiche-Kuhn sum rule
 BSE|
 BSE|                              N_e = Σ_n f^n
 BSE|
 BSE| Number of electrons N_e:                                                68
 BSE| Sum over oscillator strengths Σ_n f^n :                             39.737
 BSE|
 BSE|
 BSE|
 BSE| The BSE was successfully calculated. Have a nice day!

  Total RI-RPA Time=                                                    7.662204


 ENERGY| Total FORCE_EVAL ( QS ) energy [hartree]           -457.737523949135948

 -------------------------------------------------------------------------------
 -                                                                             -
 -                                DBCSR STATISTICS                             -
 -                                                                             -
 -------------------------------------------------------------------------------
 COUNTER                                    TOTAL       BLAS       SMM       ACC
 flops    12 x     9 x     6                31104       0.0%    100.0%      0.0%     
 flops    15 x     9 x     6                38880       0.0%    100.0%      0.0%     
 flops     9 x     9 x     9                39366       0.0%    100.0%      0.0%     
 flops    12 x     9 x    14                54432       0.0%    100.0%      0.0%     
 flops    12 x     6 x     6                55296       0.0%    100.0%      0.0%     
 flops    23 x     9 x     6                59616       0.0%    100.0%      0.0%     
 flops    15 x     9 x    14                68040       0.0%    100.0%      0.0%     
 flops    15 x     6 x     6                69120       0.0%    100.0%      0.0%     
 flops     6 x     9 x     9                69984       0.0%    100.0%      0.0%     
 flops     9 x     6 x     9                69984       0.0%    100.0%      0.0%     
 flops     9 x     9 x     6                93312       0.0%    100.0%      0.0%     
 flops    12 x     6 x    14                96768       0.0%    100.0%      0.0%     
 flops    12 x    14 x     6                96768       0.0%    100.0%      0.0%     
 flops    23 x     9 x    14               104328       0.0%    100.0%      0.0%     
 flops    23 x     6 x     6               105984       0.0%    100.0%      0.0%     
 flops    15 x     6 x    14               120960       0.0%    100.0%      0.0%     
 flops    15 x    14 x     6               120960       0.0%    100.0%      0.0%     
 flops     9 x    14 x     9               122472       0.0%    100.0%      0.0%     
 flops    14 x     9 x     9               122472       0.0%    100.0%      0.0%     
 flops     6 x     6 x     9               124416       0.0%    100.0%      0.0%     
 flops     9 x     9 x    14               163296       0.0%    100.0%      0.0%     
 flops     9 x     6 x     6               165888       0.0%    100.0%      0.0%     
 flops    12 x    14 x    14               169344       0.0%    100.0%      0.0%     
 flops    23 x     6 x    14               185472       0.0%    100.0%      0.0%     
 flops    23 x    14 x     6               185472       0.0%    100.0%      0.0%     
 flops     2 x     2 x     9               189432       0.0%    100.0%      0.0%     
 flops     6 x     9 x     6               202176       0.0%    100.0%      0.0%     
 flops    15 x    14 x    14               211680       0.0%    100.0%      0.0%     
 flops     6 x    14 x     9               217728       0.0%    100.0%      0.0%     
 flops    14 x     6 x     9               217728       0.0%    100.0%      0.0%     
 flops     9 x     6 x    14               290304       0.0%    100.0%      0.0%     
 flops     9 x    14 x     6               290304       0.0%    100.0%      0.0%     
 flops    23 x    14 x    14               324576       0.0%    100.0%      0.0%     
 flops     2 x     2 x     6               336768       0.0%    100.0%      0.0%     
 flops     6 x     9 x    14               353808       0.0%    100.0%      0.0%     
 flops     6 x     6 x     6               359424       0.0%    100.0%      0.0%     
 flops    14 x    14 x     9               381024       0.0%    100.0%      0.0%     
 flops    14 x     9 x     6               399168       0.0%    100.0%      0.0%     
 flops     9 x    14 x    14               508032       0.0%    100.0%      0.0%     
 flops     2 x     2 x    14               589344       0.0%    100.0%      0.0%     
 flops     6 x    14 x     6               628992       0.0%    100.0%      0.0%     
 flops     6 x     6 x    14               628992       0.0%    100.0%      0.0%     
 flops    14 x     9 x    14               698544       0.0%    100.0%      0.0%     
 flops    14 x     6 x     6               709632       0.0%    100.0%      0.0%     
 flops     6 x    14 x    14              1100736       0.0%    100.0%      0.0%     
 flops    14 x    14 x     6              1241856       0.0%    100.0%      0.0%     
 flops    14 x     6 x    14              1241856       0.0%    100.0%      0.0%     
 flops    14 x    14 x    14              2173248       0.0%    100.0%      0.0%     
 flops     9 x     9 x    31              2320164       0.0%    100.0%      0.0%     
 flops     2 x    29 x     9              2746764       0.0%    100.0%      0.0%     
 flops    32 x     2 x     9              3030912       0.0%    100.0%      0.0%     
 flops     6 x     9 x    31              3093552       0.0%    100.0%      0.0%     
 flops     9 x     6 x    31              3093552       0.0%    100.0%      0.0%     
 flops     2 x    29 x     6              4883136       0.0%    100.0%      0.0%     
 flops     9 x     2 x     9              4996080       0.0%    100.0%      0.0%     
 flops    32 x     2 x     6              5388288       0.0%    100.0%      0.0%     
 flops     9 x    14 x    31              5413716       0.0%    100.0%      0.0%     
 flops    14 x     9 x    31              5413716       0.0%    100.0%      0.0%     
 flops     6 x     6 x    31              6187104       0.0%    100.0%      0.0%     
 flops     2 x    29 x    14              8545488       0.0%    100.0%      0.0%     
 flops     6 x     2 x     9              9092736       0.0%    100.0%      0.0%     
 flops     9 x     2 x     6              9092736       0.0%    100.0%      0.0%     
 flops    32 x     2 x    14              9429504       0.0%    100.0%      0.0%     
 flops     9 x     9 x    32              9580032       0.0%    100.0%      0.0%     
 flops     6 x    14 x    31              9624384       0.0%    100.0%      0.0%     
 flops    14 x     6 x    31              9624384       0.0%    100.0%      0.0%     
 flops     2 x    32 x     9             12123648       0.0%    100.0%      0.0%     
 flops     6 x     9 x    32             12773376       0.0%    100.0%      0.0%     
 flops     9 x     6 x    32             12773376       0.0%    100.0%      0.0%     
 flops    14 x     2 x     9             15912288       0.0%    100.0%      0.0%     
 flops     9 x     2 x    14             15912288       0.0%    100.0%      0.0%     
 flops     6 x     2 x     6             16164864       0.0%    100.0%      0.0%     
 flops    14 x    14 x    31             19649784       0.0%    100.0%      0.0%     
 flops     2 x    32 x     6             21553152       0.0%    100.0%      0.0%     
 flops     9 x    14 x    32             22353408       0.0%    100.0%      0.0%     
 flops    14 x     9 x    32             22353408       0.0%    100.0%      0.0%     
 flops     6 x     6 x    32             25546752       0.0%    100.0%      0.0%     
 flops    14 x     2 x     6             28288512       0.0%    100.0%      0.0%     
 flops     6 x     2 x    14             28288512       0.0%    100.0%      0.0%     
 flops     9 x    29 x     9             36221580       0.0%    100.0%      0.0%     
 flops     2 x    32 x    14             37718016       0.0%    100.0%      0.0%     
 flops     9 x    31 x     9             38855214       0.0%    100.0%      0.0%     
 flops     6 x    14 x    32             39739392       0.0%    100.0%      0.0%     
 flops    14 x     6 x    32             39739392       0.0%    100.0%      0.0%     
 flops    29 x    29 x     9             39828078       0.0%    100.0%      0.0%     
 flops    31 x    31 x     9             45511038       0.0%    100.0%      0.0%     
 flops    14 x     2 x    14             49504896       0.0%    100.0%      0.0%     
 flops     6 x    29 x     9             65922336       0.0%    100.0%      0.0%     
 flops     9 x    29 x     6             65922336       0.0%    100.0%      0.0%     
 flops     6 x    31 x     9             70709760       0.0%    100.0%      0.0%     
 flops     9 x    31 x     6             70709760       0.0%    100.0%      0.0%     
 flops    29 x    29 x     6             70805472       0.0%    100.0%      0.0%     
 flops    31 x    31 x     6             80908512       0.0%    100.0%      0.0%     
 flops    14 x    14 x    32             81134592       0.0%    100.0%      0.0%     
 flops    14 x    29 x     9            115364088       0.0%    100.0%      0.0%     
 flops     9 x    29 x    14            115364088       0.0%    100.0%      0.0%     
 flops     6 x    29 x     6            117195264       0.0%    100.0%      0.0%     
 flops    14 x    31 x     9            123742080       0.0%    100.0%      0.0%     
 flops     9 x    31 x    14            123742080       0.0%    100.0%      0.0%     
 flops    29 x    29 x    14            123909576       0.0%    100.0%      0.0%     
 flops     6 x    31 x     6            125706240       0.0%    100.0%      0.0%     
 flops    29 x    32 x     9            131844672       0.0%    100.0%      0.0%     
 flops    31 x    31 x    14            141589896       0.0%    100.0%      0.0%     
 flops    32 x    29 x     9            175792896       0.0%    100.0%      0.0%     
 flops    32 x    31 x     9            187916544       0.0%    100.0%      0.0%     
 flops    31 x    32 x     9            187916544       0.0%    100.0%      0.0%     
 flops    14 x    29 x     6            205091712       0.0%    100.0%      0.0%     
 flops     6 x    29 x    14            205091712       0.0%    100.0%      0.0%     
 flops    14 x    31 x     6            219985920       0.0%    100.0%      0.0%     
 flops     6 x    31 x    14            219985920       0.0%    100.0%      0.0%     
 flops    29 x    32 x     6            234390528       0.0%    100.0%      0.0%     
 flops    32 x    29 x     6            312520704       0.0%    100.0%      0.0%     
 flops    32 x    31 x     6            334073856       0.0%    100.0%      0.0%     
 flops    31 x    32 x     6            334073856       0.0%    100.0%      0.0%     
 flops    14 x    29 x    14            358910496       0.0%    100.0%      0.0%     
 flops     9 x    32 x     9            360277632       0.0%    100.0%      0.0%     
 flops    14 x    31 x    14            384975360       0.0%    100.0%      0.0%     
 flops    29 x    32 x    14            410183424       0.0%    100.0%      0.0%     
 flops    32 x    29 x    14            546911232       0.0%    100.0%      0.0%     
 flops    32 x    31 x    14            584629248       0.0%    100.0%      0.0%     
 flops    31 x    32 x    14            584629248       0.0%    100.0%      0.0%     
 flops     6 x    32 x     9            655672320       0.0%    100.0%      0.0%     
 flops     9 x    32 x     6            655672320       0.0%    100.0%      0.0%     
 flops    14 x    32 x     9           1147426560       0.0%    100.0%      0.0%     
 flops     9 x    32 x    14           1147426560       0.0%    100.0%      0.0%     
 flops     6 x    32 x     6           1165639680       0.0%    100.0%      0.0%     
 flops    32 x    32 x     9           1406343168       0.0%    100.0%      0.0%     
 flops    14 x    32 x     6           2039869440       0.0%    100.0%      0.0%     
 flops     6 x    32 x    14           2039869440       0.0%    100.0%      0.0%     
 flops    32 x    32 x     6           2500165632       0.0%    100.0%      0.0%     
 flops    14 x    32 x    14           3569771520       0.0%    100.0%      0.0%     
 flops    32 x    32 x    14           4375289856       0.0%    100.0%      0.0%     
 flops inhomo. stacks                     2524284     100.0%      0.0%      0.0%
 flops total                        28.885795E+09       0.0%    100.0%      0.0%
 flops max/rank                    175.659816E+06       0.0%    100.0%      0.0%
 matmuls inhomo. stacks                       714     100.0%      0.0%      0.0%
 matmuls total                            4154886       0.0%    100.0%      0.0%
 number of processed stacks                342199       0.2%     99.8%      0.0%
 average stack size                                     1.0      12.2       0.0
 marketing flops                    28.697033E+09
 -------------------------------------------------------------------------------
 # multiplications                            122
 max memory usage/rank               1.530331E+09
 # max total images/rank                        3
 # max 3D layers                                1
 # MPI messages exchanged                  692736
 MPI messages size (bytes):
  total size                       497.530112E+06
  min size                           0.000000E+00
  max size                           9.472000E+03
  average size                     718.210266E+00
 MPI breakdown and total messages size (bytes):
             size <=      128              565420                        0
       128 < size <=     8192              109606                337587528
      8192 < size <=    32768               17710                159942552
     32768 < size <=   131072                   0                        0
    131072 < size <=  4194304                   0                        0
   4194304 < size <= 16777216                   0                        0
  16777216 < size                               0                        0
 -------------------------------------------------------------------------------

 *** WARNING in dbcsr_mm.F:301 :: Using a non-square number of MPI ranks ***
 *** might lead to poor performance. Used ranks: 192 Suggested: 196 400  ***

 -------------------------------------------------------------------------------
 -                                                                             -
 -                      DBCSR MESSAGE PASSING PERFORMANCE                      -
 -                                                                             -
 -------------------------------------------------------------------------------
 ROUTINE             CALLS      AVE VOLUME [Bytes]
 MP_Bcast              133                     12.
 MP_Allreduce          923                     16.
 MP_Alltoall          2656                  80397.
 MP_ISend             8032                    792.
 MP_IRecv             8032                    618.
 -------------------------------------------------------------------------------

 -------------------------------------------------------------------------------
 -                                                                             -
 -                                DBM STATISTICS                               -
 -                                                                             -
 -------------------------------------------------------------------------------
    M  x    N  x    K                                          COUNT     PERCENT
    ?  x    ?  x    ?                                      114794496      52.02%
   ??  x    ?  x    ?                                      105873408      47.98%
 -------------------------------------------------------------------------------

 -------------------------------------------------------------------------------
 -                                                                             -
 -                                GRID STATISTICS                              -
 -                                                                             -
 -------------------------------------------------------------------------------
 LP    KERNEL             BACKEND                              COUNT     PERCENT
 2     collocate general  CPU                                 254592      19.83%
 2     integrate general  CPU                                 254592      19.83%
 2     collocate ortho    CPU                                 169650      13.21%
 2     integrate ortho    CPU                                 169650      13.21%
 3     collocate ortho    CPU                                 138840      10.81%
 3     integrate ortho    CPU                                 138840      10.81%
 4     collocate ortho    CPU                                  40794       3.18%
 4     integrate ortho    CPU                                  40794       3.18%
 1     collocate ortho    CPU                                  32916       2.56%
 1     integrate ortho    CPU                                  32916       2.56%
 0     collocate general  CPU                                   3264       0.25%
 0     integrate general  CPU                                   3264       0.25%
 0     collocate ortho    CPU                                   2028       0.16%
 0     integrate ortho    CPU                                   2028       0.16%
 -------------------------------------------------------------------------------

 MEMORY| Estimated peak process memory [MiB]                                1701

 -------------------------------------------------------------------------------
 ----                             MULTIGRID INFO                            ----
 -------------------------------------------------------------------------------
 count for grid        1:        6224085          cutoff [a.u.]          250.00
 count for grid        2:        1147878          cutoff [a.u.]           83.33
 count for grid        3:         765069          cutoff [a.u.]           27.78
 count for grid        4:         135393          cutoff [a.u.]            9.26
 total gridlevel count  :        8272425

 -------------------------------------------------------------------------------
 -                                                                             -
 -                         MESSAGE PASSING PERFORMANCE                         -
 -                                                                             -
 -------------------------------------------------------------------------------

 ROUTINE             CALLS      AVE VOLUME [Bytes]
 MP_Group              379
 MP_Bcast             4618                 160512.
 MP_Allreduce        32760                   3758.
 MP_Sync               833
 MP_Alltoall          2464               11898108.
 MP_SendRecv         30247                  68708.
 MP_ISendRecv        59974                  36623.
 MP_Wait             87879
 MP_comm_split          48
 MP_ISend            27462                 317774.
 MP_IRecv            27864                 313185.
 -------------------------------------------------------------------------------


 -------------------------------------------------------------------------------
 -                                                                             -
 -                           R E F E R E N C E S                               -
 -                                                                             -
 -------------------------------------------------------------------------------
 
 CP2K version 2025.1 (Development Version), the CP2K developers group (2025).
 CP2K is freely available from https://www.cp2k.org/ .
 
 T. D. Kuehne, M. Iannuzzi, M. Del Ben, V. V. Rybkin, P. Seewald, F. Stein, T. 
 Laino, R. Z. Khaliullin, O. Schuett, F. Schiffmann, D. Golze, J. Wilhelm, S. 
 Chulkov, M. H. Bani-Hashemian, V. Weber, U. Borstnik, M. Taillefumier, A. S. 
 Jakobovits, A. Lazzaro, H. Pabst, T. Mueller, R. Schade, M. Guidon, S. 
 Andermatt, N. Holmberg, G. K. Schenter, A. Hehn, A. Bussy, F. Belleflamme, G. 
 Tabacchi, A. Gloess, M. Lass, I. Bethune, C. J. Mundy, C. Plessl, M. Watkins, 
 J. VandeVondele, M. Krack, J. Hutter.
 J. Chem. Phys. 152, 194103 (2020).
 CP2K: An electronic structure and molecular dynamics software package - 
 Quickstep: Efficient and accurate electronic structure calculations.
 https://doi.org/10.1063/5.0007045

 J. Wilhelm, D. Golze, L. Talirz, J. Hutter, C. A. Pignedoli.
 J. Phys. Chem. Lett. 9, 306-312 (2018).
 Toward GW calculations on thousands of atoms.
 https://doi.org/10.1021/acs.jpclett.7b02740

 J. Wilhelm, J. Hutter.
 Phys. Rev. B 95, 235123 (2017).
 Periodic GW calculations in the Gaussian and plane-waves scheme.
 https://doi.org/10.1103/PhysRevB.95.235123

 O. Schuett, P. Messmer, J. Hutter, J. VandeVondele.
 Electronic Structure Calculations on Graphics Processing Units, 173-190 (2016).
 GPU-Accelerated Sparse Matrix-Matrix Multiplication for Linear Scaling Density 
 Functional Theory.
 https://doi.org/10.1002/9781118670712.ch8

 J. Wilhelm, M. Del Ben, J. Hutter.
 J. Chem. Theory Comput. 12, 3623-3635 (2016).
 GW in the Gaussian and plane waves scheme with application to linear acenes.
 https://doi.org/10.1021/acs.jctc.6b00380

 A. Heinecke, G. Henry, M. Hutchinson, H. Pabst.
 Proceedings of Intl. Supercomputing Conference, 981-991 (2016).
 LIBXSMM: Accelerating Small Matrix Multiplications by Runtime Code Generation.
 https://doi.org/10.1109/SC.2016.83

 M. Del Ben, O. Schuett, T. Wentz, P. Messmer, J. Hutter, J. VandeVondele.
 Comput. Phys. Commun. 187, 120-129 (2015).
 Enabling simulation at the fifth rung of DFT: Large scale RPA calculations with 
 excellent time to solution.
 https://doi.org/10.1016/j.cpc.2014.10.021

 J. Hutter, M. Iannuzzi, F. Schiffmann, J. VandeVondele.
 WIREs Comput Mol Sci. 4, 15-25 (2014).
 CP2K: atomistic simulations of condensed matter systems.
 https://doi.org/10.1002/wcms.1159

 U. Borstnik, J. VandeVondele, V. Weber, J. Hutter.
 Parallel Comput. 40, 47-58 (2014).
 Sparse matrix multiplication: The distributed block-compressed sparse row 
 library.
 https://doi.org/10.1016/j.parco.2014.03.012

 A. Marek, V. Blum, R. Johanni, V. Havu, B. Lang, T. Auckenthaler, A. Heinecke, 
 H. Bungartz, H. Lederer.
 J. Phys. Condens. Matter 26, 213201 (2014).
 The ELPA library: scalable parallel eigenvalue solutions for electronic 
 structure theory and computational science.
 https://doi.org/10.1088/0953-8984/26/21/213201

 M. Del Ben, J. Hutter, J. VandeVondele.
 J. Chem. Theory Comput. 9, 2654-2671 (2013).
 Electron Correlation in the Condensed Phase from a Resolution of Identity 
 Approach Based on the Gaussian and Plane Waves Scheme.
 https://doi.org/10.1021/ct4002202

 M. Del Ben, J. Hutter, J. VandeVondele.
 J. Chem. Theory Comput. 8, 4177-4188 (2012).
 Second-Order Moller-Plesset Perturbation Theory in the Condensed Phase: An 
 Efficient and Massively Parallel Gaussian and Plane Waves Approach.
 https://doi.org/10.1021/ct300531w

 M. Guidon, J. Hutter, J. VandeVondele.
 J. Chem. Theory Comput. 5, 3010-3021 (2009).
 Robust Periodic Hartree-Fock Exchange for Large-Scale Simulations Using 
 Gaussian Basis Sets.
 https://doi.org/10.1021/ct900494g

 M. Guidon, F. Schiffmann, J. Hutter, J. VandeVondele.
 J. Chem. Phys. 128, 214104 (2008).
 Ab initio molecular dynamics using hybrid density functionals.
 https://doi.org/10.1063/1.2931945

 L. Genovese, T. Deutsch, S. Goedecker.
 J. Chem. Phys. 127, 054704 (2007).
 Efficient and accurate three-dimensional Poisson solver for surface problems.
 https://doi.org/10.1063/1.2754685

 J. VandeVondele, J. Hutter.
 J. Chem. Phys. 127, 114105 (2007).
 Gaussian basis sets for accurate calculations on molecular systems in gas and 
 condensed phases.
 https://doi.org/10.1063/1.2770708

 L. Genovese, T. Deutsch, A. Neelov, S. Goedecker, G. Beylkin.
 J. Chem. Phys. 125, 074105 (2006).
 Efficient solution of Poisson's equation with free boundary conditions.
 https://doi.org/10.1063/1.2335442

 M. Frigo, S. G. Johnson.
 Proc. IEEE 93, 216-231 (2005).
 The design and implementation of FFTW3.
 https://doi.org/10.1109/JPROC.2004.840301

 M. Krack, M. Parrinello.
 Phys. Chem. Chem. Phys. 2, 2105-2112 (2000).
 All-electron ab-initio molecular dynamics.
 https://doi.org/10.1039/b001167n

 G. Lippert, J. Hutter, M. Parrinello.
 Theor. Chem. Acc. 103, 124-140 (1999).
 The Gaussian and augmented-plane-wave density functional method for ab initio 
 molecular dynamics simulations.
 https://doi.org/10.1007/s002140050523

 J. P. Perdew, K. Burke, M. Ernzerhof.
 Phys. Rev. Lett. 77, 3865-3868 (1996).
 Generalized gradient approximation made simple.
 https://doi.org/10.1103/PhysRevLett.77.3865


 -------------------------------------------------------------------------------
 -                                                                             -
 -                                T I M I N G                                  -
 -                                                                             -
 -------------------------------------------------------------------------------
 SUBROUTINE                       CALLS  ASD         SELF TIME        TOTAL TIME
                                MAXIMUM       AVERAGE  MAXIMUM  AVERAGE  MAXIMUM
 CP2K                                 1  1.0    0.019    0.040  122.151  122.151
 qs_energies                          1  2.0    0.000    0.000  121.802  121.893
 scf_env_do_scf                       1  3.0    0.000    0.000  112.609  112.615
 scf_env_do_scf_inner_loop           77  4.0    0.002    0.005  112.608  112.615
 qs_ks_build_kohn_sham_matrix        78  7.0    0.011    0.013   81.187   81.213
 qs_ks_update_qs_env                 77  5.0    0.001    0.001   80.506   80.533
 rebuild_ks_matrix                   77  6.0    0.000    0.000   80.498   80.525
 fft_wrap_pw1pw2                   1629  9.9    0.030    0.037   44.948   49.048
 fft_wrap_pw1pw2_250               1161 11.1    0.883    1.071   42.633   48.114
 fft3d_ps                          1629 11.9    5.763    8.022   41.399   45.313
 mp_alltoall_z22v                  1629 13.9   33.893   37.270   33.893   37.270
 qs_rho_update_rho_low               78  5.0    0.001    0.001   24.037   24.045
 calculate_rho_elec                  78  6.0    0.102    0.145   23.473   23.474
 pw_poisson_solve                    78  8.0    0.342    0.467   23.266   23.292
 qs_vxc_create                       78  8.0    0.001    0.001   21.878   21.879
 xc_vxc_pw_create                    77  9.0    0.162    0.226   21.878   21.878
 x_to_yz                            696 12.9    0.700    1.256   19.226   21.516
 xc_pw_derive                       462 11.0    0.003    0.004   16.852   17.253
 yz_to_x                            621 13.2    0.548    0.633   15.870   17.147
 density_rs2pw                       78  7.0    0.003    0.004   14.570   15.293
 mp_sum_d                          3948  6.7    5.064   13.091    5.064   13.091
 sum_up_and_integrate                78  8.0    0.001    0.001   12.079   12.623
 integrate_v_rspace                  78  9.0    0.002    0.002   12.013   12.567
 ps_wavelet_solve                    78  9.0    4.665    6.960   11.448   12.334
 mp_waitany                       25692 11.5    9.328   12.180    9.328   12.180
 potential_pw2rs                     78 10.0    0.008    0.010   11.537   11.605
 transfer_pw2rs                     391 10.6    0.007    0.009   10.420   11.273
 xc_rho_set_and_dset_create          77 10.0    0.197    0.254   10.189   11.250
 xc_pw_divergence                    77 10.0    0.002    0.002   10.706   10.936
 transfer_rs2pw                     391  8.4    0.011    0.017    9.479   10.134
 grid_collocate_task_list            78  7.0    8.074    8.813    8.074    8.813
 mp2_main                             1  3.0    0.000    0.000    8.499    8.589
 mp2_gpw_main                         1  4.0    0.000    0.000    7.674    7.680
 transfer_pw2rs_250                 157 11.0    1.285    1.501    6.416    7.533
 prepare_gapw_den                    78  8.0    0.001    0.001    6.771    7.322
 mp_alltoall_d54                     78 10.0    3.336    7.132    3.336    7.132
 gspace_mixing                       76  5.0    0.099    0.141    7.072    7.083
 hfx_ks_matrix                       78  8.0    0.001    0.002    6.972    7.016
 integrate_four_center               78  9.0    2.729    4.552    6.967    7.005
 rpa_ri_compute_en                    1  5.0    0.000    0.000    6.957    6.959
 rpa_num_int                          1  6.0    0.000    0.001    6.940    6.941
 put_rho0_on_grid                    78  9.0    0.112    0.175    6.274    6.826
 transfer_rs2pw_250                 157 10.0    1.426    1.635    5.828    6.508
 integrate_vhg0_rspace               78  8.0    0.055    0.076    4.656    5.189
 fft_wrap_pw1pw2_90                 156 10.5    0.030    0.049    1.912    4.746
 mp_alltoall_d45                     79 10.0    3.942    4.640    3.942    4.640
 mp_isend_dm3                      3132 11.5    2.131    4.549    2.131    4.549
 parallel_gemm_fm                   374  8.4    0.000    0.000    4.223    4.282
 parallel_gemm_fm_cosma             374  9.4    4.223    4.281    4.223    4.281
 mp_sync                            833  9.5    2.032    4.098    2.032    4.098
 mp_alltoall_d11v                  1440  9.4    2.799    4.084    2.799    4.084
 mp_waitall_1                     74802 12.0    2.646    3.691    2.646    3.691
 cp2k_distribution_to_z_slices       78  9.0    0.308    0.367    2.504    3.380
 compute_GW_self_energy             100  7.0    0.001    0.001    3.325    3.368
 broyden_mixing                      76  6.0    3.096    3.143    3.202    3.222
 compute_GW_self_energy_deep        100  8.0    0.372    0.381    2.945    2.987
 transfer_pw2rs_90                   78 12.0    0.254    0.306    1.957    2.699
 start_bse_calculation                1  7.0    0.000    0.000    2.474    2.475
 cp_fm_diag_elpa                     83  7.0    0.000    0.000    2.331    2.347
 transfer_rs2pw_90                   78  9.0    0.279    0.319    2.236    2.334
 cp_fm_diag_elpa_base                83  8.0    2.282    2.296    2.301    2.302
 mp_max_i                           672  2.9    0.730    2.251    0.730    2.251
 Vh_1c_gg_integrals                  78  8.0    0.008    0.078    0.686    2.210
 transfer_pw2rs_30                   78 12.0    0.341    0.390    1.743    2.024
 pw_integral_ab_c1d_c1d_gs           78  9.0    0.216    0.253    0.832    1.994
 mp_sum_dm                         4060  7.7    1.492    1.863    1.492    1.863
 xc_functional_eval                 231 10.8    0.001    0.002    0.941    1.634
 pbe_lda_eval                       231 11.8    0.940    1.633    0.940    1.633
 integrate_four_center_main          78 10.0    0.016    0.037    1.284    1.465
 integrate_four_center_bin         5228 11.0    1.268    1.450    1.268    1.450
 rs_grid_zero                       392 11.2    1.131    1.414    1.131    1.414
 pw_derive                          696 11.3    1.171    1.290    1.171    1.290
 create_hermitian_form_of_ABBA        1  8.0    0.000    0.000    1.255    1.271
 pw_copy                           1165 10.6    1.092    1.246    1.092    1.246
 qs_scf_new_mos                      77  5.0    0.001    0.001    1.195    1.237
 transfer_rs2pw_30                   78  9.0    0.437    0.494    1.090    1.196
 rpa_num_int_RPA_matrix_operati     100  7.0    0.001    0.003    1.087    1.090
 pw_gather_p                        777 11.8    0.838    1.052    0.838    1.052
 cp_fm_power                          2  7.5    0.008    0.009    1.033    1.045
 diagonalize_C                        1  8.0    0.000    0.000    0.999    1.003
 grid_integrate_task_list            78 10.0    0.084    0.983    0.084    0.983
 rs_gather_matrices                  78 10.0    0.001    0.006    0.389    0.982
 pw_scatter_p                       852 12.1    0.919    0.979    0.919    0.979
 mp_sendrecv_dv                   29796 10.0    0.837    0.952    0.837    0.952
 eigensolver_symm                    78  6.0    0.006    0.007    0.924    0.933
 calc_mat_Q                         100  8.0    0.000    0.000    0.854    0.861
 contract_S_to_Q                    100  9.0    0.000    0.000    0.853    0.860
 pw_poisson_rebuild                  78  9.0    0.000    0.000    0.746    0.772
 ps_wavelet_create                    1 10.0    0.000    0.000    0.746    0.772
 RS_z_slice_distribution              1 11.0    0.192    0.216    0.746    0.772
 pw_poisson_set                      79  8.9    0.002    0.002    0.711    0.737
 pw_copy_to_array                   777 11.8    0.529    0.712    0.529    0.712
 mp2_ri_gpw_compute_in                1  5.0    0.000    0.000    0.702    0.702
 compute_vec_Sigma_x_minus_vxc_       1  4.0    0.000    0.000    0.692    0.692
 calculate_vxc_atom                  78  8.0    0.029    0.077    0.690    0.691
 mp2_ri_gpw_compute_in_loop           1  6.0    0.000    0.000    0.674    0.675
 contract_B_L                         4  7.0    0.001    0.001    0.554    0.636
 powell_optimize                 380998 11.0    0.541    0.577    0.541    0.577
 calculate_rho_atom_coeff            78  6.0    0.029    0.066    0.562    0.570
 gaVxcgb_GC                          77  9.0    0.026    0.555    0.026    0.555
 mp_cart_create                     489 10.1    0.441    0.526    0.442    0.527
 calc_screening_functions             1 10.0    0.194    0.203    0.486    0.520
 dbt_pgrid_create_expert             84 10.8    0.000    0.000    0.418    0.502
 mp2_eri_3c_integrate                 1  7.0    0.001    0.001    0.100    0.500
 integrate_set_3c                  1720  8.0    0.089    0.463    0.099    0.499
 mp_irecv_dm3                      3132 11.5    0.074    0.497    0.074    0.497
 pw_axpy                            775  9.3    0.384    0.463    0.384    0.463
 calculate_rho_atom                 234  9.0    0.172    0.429    0.172    0.429
 calc_pair_dist_radii                 1 10.0    0.157    0.165    0.406    0.420
 pw_copy_from_array                 852 12.1    0.313    0.418    0.313    0.418
 init_scf_run                         1  3.0    0.000    0.000    0.379    0.379
 cp_fm_cholesky_invert              101  8.0    0.362    0.373    0.362    0.373
 update_ks_atom                      78  8.0    0.018    0.038    0.310    0.372
 scf_env_initial_rho_setup            1  4.0    0.000    0.000    0.370    0.370
 mp_sum_dv                        14854 11.5    0.337    0.367    0.337    0.367
 fft_wrap_pw1pw2_30                 156 10.5    0.004    0.005    0.271    0.349
 mp_bcast_dm                       2652  9.0    0.292    0.345    0.292    0.345
 transfer_rs2pw_10                   78  9.0    0.129    0.153    0.314    0.343
 transfer_pw2rs_10                   78 12.0    0.091    0.105    0.298    0.342
 pw_zero                            464 10.3    0.267    0.301    0.267    0.301
 mp_alltoall_z11v                   312 13.5    0.223    0.289    0.223    0.289
 mp_rank_compare                   1629 12.9    0.231    0.248    0.231    0.248
 qs_energies_init_hamiltonians        1  3.0    0.000    0.000    0.236    0.236
 build_core_hamiltonian_matrix        1  4.0    0.000    0.000    0.232    0.232
 overlap_condnum                      1  5.0    0.000    0.000    0.230    0.231
 compute_Erpa_by_freq_int           100  8.0    0.001    0.001    0.219    0.219
 cp_fm_cholesky_decompose           102  9.0    0.216    0.219    0.216    0.219
 arnoldi_conjugate_gradient           5  6.0    0.005    0.006    0.212    0.212
 mp2_main_alloc_hfx                   1  4.0    0.107    0.197    0.107    0.197
 offload_free_buffer                 86  8.4    0.143    0.182    0.143    0.182
 mp_sum_i                            21  9.7    0.091    0.178    0.091    0.178
 restraint_control                    1  2.0    0.000    0.000    0.090    0.177
 calculate_dm_sparse                 77  6.0    0.000    0.000    0.165    0.176
 cp_dbcsr_plus_fm_fm_t               77  7.0    0.001    0.001    0.164    0.176
 copy_dbcsr_to_fm                   108  6.5    0.002    0.002    0.128    0.167
 yz_to_xz                           156 14.0    0.011    0.013    0.122    0.164
 cp_fm_to_fm_submat_general         112 10.1    0.108    0.152    0.108    0.152
 xz_to_yz                           156 11.0    0.008    0.010    0.121    0.149
 mp_alltoall_i22                    376  9.1    0.107    0.144    0.107    0.144
 dbcsr_multiply_generic             122  8.1    0.003    0.004    0.130    0.138
 dbt_total                            8  8.0    0.000    0.000    0.132    0.132
 fft_wrap_pw1pw2_10                 156 10.5    0.001    0.002    0.101    0.131
 dbcsr_sym_matrix_vector_mult      1605  7.0    0.011    0.012    0.117    0.130
 mp_isend_dv                      27816 11.7    0.056    0.129    0.056    0.129
 dbt_contract                         4  9.0    0.000    0.000    0.124    0.126
 dbcsr_complete_redistribute        266  8.4    0.008    0.011    0.106    0.120
 create_A                             1  8.0    0.005    0.011    0.108    0.116
 write_mo_set_to_restart             77  5.0    0.001    0.050    0.051    0.113
 dbcsr_desymmetrize_deep            110  7.5    0.002    0.003    0.069    0.109
 qs_init_subsys                       1  2.0    0.001    0.001    0.097    0.098
 mp_bcast_b_src                     161  7.5    0.084    0.097    0.084    0.097
 create_B                             1  8.0    0.000    0.000    0.077    0.095
 qs_env_setup                         1  3.0    0.000    0.000    0.094    0.094
 qs_env_rebuild_pw_env                2  3.5    0.000    0.000    0.094    0.094
 pw_env_rebuild                       1  5.0    0.000    0.000    0.094    0.094
 dbt_tas_multiply                     8 11.5    0.000    0.000    0.087    0.087
 dbt_tas_total                        8 12.5    0.000    0.001    0.087    0.087
 create_qs_kind_set                   1  2.0    0.000    0.000    0.085    0.086
 read_qs_kind                         3  3.0    0.030    0.047    0.085    0.086
 scale_and_distribute               156 10.0    0.058    0.085    0.058    0.085
 pw_grid_setup                        4  6.0    0.000    0.000    0.082    0.082
 pw_grid_setup_internal               4  7.0    0.001    0.002    0.081    0.082
 external_control                    78  5.0    0.001    0.078    0.081    0.081
 mp_irecv_dv                      27595 11.7    0.027    0.081    0.027    0.081
 scf_post_calculation_gpw             1  3.0    0.000    0.000    0.079    0.079
 write_available_results              1  4.0    0.000    0.000    0.079    0.079
 write_mo_free_results                1  5.0    0.002    0.003    0.079    0.079
 mp_sum_l                           996  6.2    0.069    0.076    0.069    0.076
 calculate_rho0_atom                234  9.0    0.071    0.075    0.071    0.075
 cp_fm_symm                          78  7.0    0.070    0.072    0.070    0.072
 mp_isendrecv_dv                  59592 12.0    0.047    0.070    0.047    0.070
 copy_fm_to_dbcsr                   158  8.1    0.000    0.000    0.055    0.068
 rs_scatter_matrices                 78  7.0    0.001    0.002    0.005    0.066
 integrate_four_center_getP          78 10.0    0.012    0.014    0.062    0.065
 write_mo_set_low                     4  6.0    0.000    0.000    0.049    0.063
 cp_fm_write_unformatted              4  7.0    0.049    0.063    0.049    0.063
 integrate_four_center_dist_KS       78 10.0    0.012    0.013    0.059    0.060
 vxc_of_r_new                       154  9.0    0.000    0.004    0.004    0.059
 fm_general_add_bse                   5 10.2    0.000    0.000    0.041    0.059
 multiply_cannon                    122  9.1    0.007    0.007    0.049    0.057
 integrate_four_center_load          78 10.0    0.000    0.000    0.045    0.056
 parser_read_line                 12058  4.0    0.002    0.002    0.056    0.056
 hfx_load_balance                     1 11.0    0.000    0.000    0.045    0.056
 dbcsr_rep_row_to_rep_col_vec      1605  8.0    0.004    0.004    0.025    0.056
 postprocess_bse                      1  9.0    0.000    0.001    0.053    0.054
 parser_read_line_low                22  5.0    0.001    0.013    0.053    0.054
 broadcast_input_information         22  6.0    0.007    0.007    0.052    0.053
 dbcsr_add_d                       2470  7.1    0.001    0.001    0.011    0.052
 cube_transpose_2                   156 11.0    0.003    0.003    0.028    0.052
 make_m2s                           244  9.1    0.003    0.003    0.049    0.051
 dbcsr_col_vec_to_rep_row          1605  8.0    0.005    0.006    0.037    0.051
 dbcsr_add_anytype                 2470  8.1    0.002    0.007    0.010    0.051
 calc_fm_mat_S_rpa                  100  9.0    0.001    0.050    0.001    0.050
 pw_grid_sort                         4  8.0    0.035    0.036    0.048    0.050
 dbcsr_finalize                    3923 10.6    0.004    0.012    0.017    0.047
 cp_fm_redistribute_start            83  8.0    0.000    0.000    0.029    0.046
 cp_fm_uplo_to_full                 187  8.4    0.030    0.046    0.030    0.046
 pw_scale                           309  9.5    0.038    0.045    0.038    0.045
 hfx_load_balance_range               1 12.0    0.000    0.000    0.033    0.044
 dbt_tas_dbm                          8 13.5    0.000    0.000    0.043    0.043
 cube_transpose_1                   156 14.0    0.002    0.003    0.023    0.042
 multiply_cannon_loop               122 10.1    0.005    0.006    0.034    0.041
 fm_general_add_bse_5_comm_buff       5 11.2    0.000    0.000    0.021    0.039
 communicate_buffer                   5 12.2    0.000    0.000    0.021    0.039
 dbm_multiply                         8 15.5    0.036    0.039    0.036    0.039
 abc_contract                      1720  9.0    0.010    0.037    0.010    0.037
 mp_bcast_i_src                      88  7.0    0.026    0.036    0.026    0.036
 hirshfeld_integration                1  6.0    0.001    0.004    0.035    0.035
 mult_B_with_W                        1  8.0    0.000    0.000    0.031    0.035
 calculate_hirshfeld_normalizat       1  6.0    0.001    0.004    0.032    0.034
 dbt_tas_mm_1N                        6 14.5    0.000    0.000    0.031    0.034
 xc_pw_smooth                        77 10.0    0.000    0.000    0.024    0.034
 make_images                        244 10.1    0.006    0.007    0.031    0.033
 dbt_tas_estimate_result_nze          4 12.0    0.000    0.001    0.033    0.033
 dbt_copy                            12 10.1    0.000    0.000    0.027    0.032
 dbcsr_merge_all                   3167 11.4    0.007    0.023    0.010    0.028
 mp_maxloc_dv                      1525  1.0    0.027    0.028    0.027    0.028
 mp_comm_split_direct                48 14.5    0.021    0.027    0.021    0.027
 dbt_remap                            8 10.0    0.001    0.002    0.027    0.027
 get_2c_integrals                     1  6.0    0.000    0.000    0.020    0.027
 cp_fm_syrk                           3  7.0    0.025    0.027    0.025    0.027
 dbt_reshape                          8 11.6    0.003    0.006    0.022    0.026
 mp_waitall_2                        50 15.7    0.019    0.025    0.019    0.025
 mp_bcast_dv                       1605  9.0    0.016    0.024    0.016    0.024
 get_multipoles_mo                    1 10.0    0.000    0.000    0.021    0.022
 dbcsr_iterator_start             21551  8.9    0.013    0.017    0.016    0.021
 mixing_init                          1  5.0    0.020    0.020    0.020    0.021
 dbt_tas_distribution_new            96 11.8    0.012    0.012    0.020    0.021
 mp_bcast_am_src                     22  7.0    0.018    0.020    0.018    0.020
 dbt_distribution_new_expert         76 10.1    0.001    0.001    0.020    0.020
 mp_cart_sub                        222  8.5    0.019    0.020    0.019    0.020
 dbt_communicate_buffer               8 12.6    0.001    0.001    0.016    0.020
 Q_trace_and_add_unit_matrix        100  8.0    0.000    0.002    0.014    0.019
 get_oscillator_strengths             1 10.0    0.000    0.000    0.019    0.019
 dbcsr_copy                        7082  7.6    0.010    0.011    0.018    0.019
 mp2_main_free_hfx                    1  4.0    0.007    0.019    0.007    0.019
 create_integ_mat                     4  6.0    0.001    0.001    0.017    0.018
 multiply_cannon_metrocomm3        2008 11.1    0.003    0.003    0.008    0.017
 make_images_sizes                  244 11.1    0.000    0.000    0.015    0.017
 mp_alltoall_i44                    244 12.1    0.015    0.017    0.015    0.017
 array2fm                             4  7.0    0.000    0.000    0.015    0.016
 dbcsr_create_new                  9464  9.0    0.011    0.011    0.015    0.015
 mp_alltoall_i                       40 13.9    0.011    0.015    0.011    0.015
 sort_shells                          4  9.0    0.013    0.015    0.013    0.015
 grep_Lcols                           1  7.0    0.000    0.000    0.007    0.014
 self_consistency_check              77  5.0    0.000    0.000    0.010    0.014
 mp_sendrecv_dm2                    237  7.3    0.005    0.014    0.005    0.014
 grep_Lcols_comm                      1  8.0    0.001    0.001    0.007    0.014
 cp_sm_mix                           77  6.0    0.000    0.000    0.010    0.014
 mp_max_d                            79  6.9    0.010    0.014    0.010    0.014
 print_transition_amplitudes          1 10.0    0.000    0.000    0.013    0.013
 print_transition_amplitudes_co      50 11.0    0.000    0.000    0.013    0.013
 filter_eigvec_contrib               50 12.0    0.007    0.007    0.013    0.013
 dbt_tas_replicate                    8 13.5    0.004    0.004    0.012    0.013
 mp_sendrecv_im2                    214  7.2    0.002    0.013    0.002    0.013
 dbcsr_iterator_stop              21551  8.9    0.009    0.011    0.011    0.013
 mp_cart_rank                     67052  9.8    0.011    0.012    0.011    0.012
 dbt_tas_create_split                44 13.2    0.000    0.000    0.012    0.012
 dbt_tas_create_split_rows_or_c      44 14.2    0.000    0.000    0.012    0.012
 -------------------------------------------------------------------------------

 The number of warnings for this run is : 1
 
 -------------------------------------------------------------------------------
  **** **** ******  **  PROGRAM ENDED AT                 2025-03-15 09:32:34.601
 ***** ** ***  *** **   PROGRAM RAN ON                                  n2cn0253
 **    ****   ******    PROGRAM RAN BY                                  metdyn02
 ***** **    ** ** **   PROGRAM PROCESS ID                                155365
  **** **  *******  **  PROGRAM STOPPED IN /scratch/hpc-prf-metdyn/metdyn02_Remi
                                           /10_MOL/05_MOL/aUKBqsEOTmq69kFe5R_nOg
                                           /5k_set_final_qzvp/XETJIQ/SZV/GW+BSE/
                                           RILIM
