 DBCSR| CPU Multiplication driver                                           BLAS (U)
 DBCSR| Multrec recursion limit                                              512 (U)
 DBCSR| Multiplication stack size                                           1000 (D)
 DBCSR| Maximum elements for images                                    UNLIMITED (U)
 DBCSR| Multiplicative factor virtual images                                   1 (U)
 DBCSR| Use multiplication densification                                       T (D)
 DBCSR| Multiplication size stacks                                             3 (U)
 DBCSR| Use memory pool for CPU allocation                                     F (U)
 DBCSR| Number of 3D layers                                               SINGLE (U)
 DBCSR| Use MPI memory allocation                                              F (U)
 DBCSR| Use RMA algorithm                                                      F (U)
 DBCSR| Use Communication thread                                               T (U)
 DBCSR| Communication thread load                                             75 (D)
 DBCSR| MPI: My process id                                                     0
 DBCSR| MPI: Number of processes                                              48
 DBCSR| OMP: Current number of threads                                         4
 DBCSR| OMP: Max number of threads                                             4
 DBCSR| Split modifier for TAS multiplication algorithm                  1.0E+00 (U)


  **** **** ******  **  PROGRAM STARTED AT               2025-03-26 05:52:42.910
 ***** ** ***  *** **   PROGRAM STARTED ON                          i05r06c03s12
 **    ****   ******    PROGRAM STARTED BY                               di38fab
 ***** **    ** ** **   PROGRAM PROCESS ID                               3343229
  **** **  *******  **  PROGRAM STARTED IN /hppfs/scratch/04/di38fab/05_MOL/W4-1
                                           1+ALK/lio/SZVSR/GW+BSE/1e-4

 CP2K| version string:                 CP2K version 2025.1 (Development Version)
 CP2K| source code revision number:                                  git:d2e611a
 CP2K| cp2kflags: omp libint fftw3 libxc parallel scalapack max_contr=4         
 CP2K| is freely available from                            https://www.cp2k.org/
 CP2K| Program compiled at                       Thu 06 Mar 2025 05:09:20 PM CET
 CP2K| Program compiled on                                               login02
 CP2K| Program compiled for                                        Supermuc-foss
 CP2K| Data directory path                  /hppfs/work/pn36zo/di38fab/cp2k/data
 CP2K| Input file name                                                    GW.inp

 GLOBAL| Force Environment number                                              1
 GLOBAL| Basis set file name            /hppfs/scratch/04/di38fab/04_TMD/BASIS_A
 GLOBAL| Potential file name            /hppfs/work/pn36zo/di38fab/cp2k/data/ALL
 GLOBAL| MM Potential file name                                     MM_POTENTIAL
 GLOBAL| Coordinate file name                                      __STD_INPUT__
 GLOBAL| Method name                                                        CP2K
 GLOBAL| Project name                                                       MoS2
 GLOBAL| Run type                                                         ENERGY
 GLOBAL| FFT library                                                       FFTW3
 GLOBAL| Diagonalization library                                       ScaLAPACK
 GLOBAL| DGEMM library                                                      BLAS
 GLOBAL| Orthonormality check for eigenvectors                          DISABLED
 GLOBAL| Matrix multiplication library                                 ScaLAPACK
 GLOBAL| All-to-all communication in single precision                          F
 GLOBAL| FFTs using library dependent lengths                                  F
 GLOBAL| Grid backend                                                       AUTO
 GLOBAL| Global print level                                               MEDIUM
 GLOBAL| MPI I/O enabled                                                       T
 GLOBAL| Total number of message passing processes                            48
 GLOBAL| Number of threads for this process                                    4
 GLOBAL| This output is from process                                           0
 GLOBAL| OpenMP stack size per thread (OMP_STACKSIZE)                    default
 GLOBAL| CPU model name             Intel(R) Xeon(R) Platinum 8174 CPU @ 3.10GHz

 MEMORY| system memory details [Kb]
 MEMORY|                        rank 0           min           max       average
 MEMORY| MemTotal             98436660      98436660      98436664      98436661
 MEMORY| MemFree              83931680      83931680      84095696      84040102
 MEMORY| Buffers                     0             0             0             0
 MEMORY| Cached                2399076       2389256       2405212       2397567
 MEMORY| Slab                  1217372       1217372       1227572       1220912
 MEMORY| SReclaimable           271440        271440        277900        273391
 MEMORY| MemLikelyFree        86602196      86602196      86778808      86711060


 *** Fundamental physical constants (SI units) ***

 *** Literature: B. J. Mohr and B. N. Taylor,
 ***             CODATA recommended values of the fundamental physical
 ***             constants: 2006, Web Version 5.1
 ***             http://physics.nist.gov/constants

 Speed of light in vacuum [m/s]                             2.99792458000000E+08
 Magnetic constant or permeability of vacuum [N/A**2]       1.25663706143592E-06
 Electric constant or permittivity of vacuum [F/m]          8.85418781762039E-12
 Planck constant (h) [J*s]                                  6.62606896000000E-34
 Planck constant (h-bar) [J*s]                              1.05457162825177E-34
 Elementary charge [C]                                      1.60217648700000E-19
 Electron mass [kg]                                         9.10938215000000E-31
 Electron g factor [ ]                                     -2.00231930436220E+00
 Proton mass [kg]                                           1.67262163700000E-27
 Fine-structure constant                                    7.29735253760000E-03
 Rydberg constant [1/m]                                     1.09737315685270E+07
 Avogadro constant [1/mol]                                  6.02214179000000E+23
 Boltzmann constant [J/K]                                   1.38065040000000E-23
 Atomic mass unit [kg]                                      1.66053878200000E-27
 Bohr radius [m]                                            5.29177208590000E-11

 *** Conversion factors ***

 [u] -> [a.u.]                                              1.82288848426455E+03
 [Angstrom] -> [Bohr] = [a.u.]                              1.88972613288564E+00
 [a.u.] = [Bohr] -> [Angstrom]                              5.29177208590000E-01
 [a.u.] -> [s]                                              2.41888432650478E-17
 [a.u.] -> [fs]                                             2.41888432650478E-02
 [a.u.] -> [J]                                              4.35974393937059E-18
 [a.u.] -> [N]                                              8.23872205491840E-08
 [a.u.] -> [K]                                              3.15774647902944E+05
 [a.u.] -> [kJ/mol]                                         2.62549961709828E+03
 [a.u.] -> [kcal/mol]                                       6.27509468713739E+02
 [a.u.] -> [Pa]                                             2.94210107994716E+13
 [a.u.] -> [bar]                                            2.94210107994716E+08
 [a.u.] -> [atm]                                            2.90362800883016E+08
 [a.u.] -> [eV]                                             2.72113838565563E+01
 [a.u.] -> [Hz]                                             6.57968392072181E+15
 [a.u.] -> [1/cm] (wave numbers)                            2.19474631370540E+05
 [a.u./Bohr**2] -> [1/cm]                                   5.14048714338585E+03
 

 CELL_TOP| Volume [angstrom^3]:                                     27000.000000
 CELL_TOP| Vector a [angstrom    30.000     0.000     0.000   |a| =    30.000000
 CELL_TOP| Vector b [angstrom     0.000    30.000     0.000   |b| =    30.000000
 CELL_TOP| Vector c [angstrom     0.000     0.000    30.000   |c| =    30.000000
 CELL_TOP| Angle (b,c), alpha [degree]:                                90.000000
 CELL_TOP| Angle (a,c), beta  [degree]:                                90.000000
 CELL_TOP| Angle (a,b), gamma [degree]:                                90.000000
 CELL_TOP| Numerically orthorhombic:                                         YES
 CELL_TOP| Periodicity                                                      NONE

 GENERATE|  Preliminary Number of Bonds generated:                             0
 GENERATE|  Achieved consistency in connectivity generation.

 CELL| Volume [angstrom^3]:                                         27000.000000
 CELL| Vector a [angstrom]:      30.000     0.000     0.000   |a| =    30.000000
 CELL| Vector b [angstrom]:       0.000    30.000     0.000   |b| =    30.000000
 CELL| Vector c [angstrom]:       0.000     0.000    30.000   |c| =    30.000000
 CELL| Angle (b,c), alpha [degree]:                                    90.000000
 CELL| Angle (a,c), beta  [degree]:                                    90.000000
 CELL| Angle (a,b), gamma [degree]:                                    90.000000
 CELL| Numerically orthorhombic:                                             YES
 CELL| Periodicity                                                          NONE

 CELL_REF| Volume [angstrom^3]:                                     27000.000000
 CELL_REF| Vector a [angstrom    30.000     0.000     0.000   |a| =    30.000000
 CELL_REF| Vector b [angstrom     0.000    30.000     0.000   |b| =    30.000000
 CELL_REF| Vector c [angstrom     0.000     0.000    30.000   |c| =    30.000000
 CELL_REF| Angle (b,c), alpha [degree]:                                90.000000
 CELL_REF| Angle (a,c), beta  [degree]:                                90.000000
 CELL_REF| Angle (a,b), gamma [degree]:                                90.000000
 CELL_REF| Numerically orthorhombic:                                         YES
 CELL_REF| Periodicity                                                      NONE

 *******************************************************************************
 *******************************************************************************
 **                                                                           **
 **     #####                         ##              ##                      **
 **    ##   ##            ##          ##              ##                      **
 **   ##     ##                       ##            ######                    **
 **   ##     ##  ##   ##  ##   #####  ##  ##   ####   ##    #####    #####    **
 **   ##     ##  ##   ##  ##  ##      ## ##   ##      ##   ##   ##  ##   ##   **
 **   ##  ## ##  ##   ##  ##  ##      ####     ###    ##   ######   ######    **
 **    ##  ###   ##   ##  ##  ##      ## ##      ##   ##   ##       ##        **
 **     #######   #####   ##   #####  ##  ##  ####    ##    #####   ##        **
 **           ##                                                    ##        **
 **                                                                           **
 **                                                ... make the atoms dance   **
 **                                                                           **
 **            Copyright (C) by CP2K developers group (2000-2025)             **
 **                      J. Chem. Phys. 152, 194103 (2020)                    **
 **                                                                           **
 *******************************************************************************

 DFT| Spin restricted Kohn-Sham (RKS) calculation                            RKS
 DFT| Multiplicity                                                             2
 DFT| Number of spin states                                                    1
 DFT| Charge                                                                   0
 DFT| Self-interaction correction (SIC)                                       NO
 DFT| Cutoffs: density                                              1.000000E-10
 DFT|          gradient                                             1.000000E-10
 DFT|          tau                                                  1.000000E-10
 DFT|          cutoff_smoothing_range                               0.000000E+00
 DFT| XC density smoothing                                                  NONE
 DFT| XC derivatives                                                          PW

 FUNCTIONAL| PBE:
 FUNCTIONAL| J.P.Perdew, K.Burke, M.Ernzerhof, Phys. Rev. Letter, vol. 77, n 18,
 FUNCTIONAL|  pp. 3865-3868, (1996)sx=0.750sc=1.000{spin unpolarized}           


 QS| Method:                                                                GAPW
 QS| Density plane wave grid type                        NON-SPHERICAL FULLSPACE
 QS| Number of grid levels:                                                    4
 QS| Density cutoff [a.u.]:                                                250.0
 QS| Multi grid cutoff [a.u.]: 1) grid level                               250.0
 QS|                           2) grid level                                83.3
 QS|                           3) grid level                                27.8
 QS|                           4) grid level                                 9.3
 QS| Grid level progression factor:                                          3.0
 QS| Relative density cutoff [a.u.]:                                        50.0
 QS| Interaction thresholds: eps_pgf_orb:                                1.0E-12
 QS|                         eps_filter_matrix:                          0.0E+00
 QS|                         eps_core_charge:                            1.0E-14
 QS|                         eps_rho_gspace:                             1.0E-12
 QS|                         eps_rho_rspace:                             1.0E-12
 QS|                         eps_gvg_rspace:                             1.0E-06
 QS|                         eps_ppl:                                    1.0E-02
 QS|                         eps_ppnl:                                   1.0E-08
 QS| GAPW|      One center basis from orbital basis primitives
 QS| GAPW|                   eps_fit:                                    1.0E-04
 QS| GAPW|                   eps_iso:                                    1.0E-12
 QS| GAPW|                   eps_svd:                                    1.0E-08
 QS| GAPW|                   eps_cpc:                                    1.0E-12
 QS| GAPW|   atom-r-grid: quadrature:                                     GC_LOG
 QS| GAPW|      atom-s-grid:  max l :                                          4
 QS| GAPW|      max_l_rho0 :                                                   2


 ATOMIC KIND INFORMATION

  1. Atomic kind: li                                    Number of atoms:       1

     Orbital Basis Set                                         aug-SZV-MOLOPT-ae

       Number of orbital shell sets:                                           2
       Number of orbital shells:                                               6
       Number of primitive Cartesian functions:                               12
       Number of Cartesian basis functions:                                   15
       Number of spherical basis functions:                                   14
       Norm type:                                                              2

       Normalised Cartesian orbitals:

                        Set   Shell   Orbital            Exponent    Coefficient

                          1       1    1s                0.031084       0.012700
                                                         0.067814       0.056364
                                                         0.156146       0.044301
                                                         0.405851      -0.012244
                                                         1.305830      -0.040912
                                                         6.597564      -0.038883

                          1       2    2s                0.031084       0.052890
                                                         0.067814      -0.000168
                                                         0.156146      -0.000256
                                                         0.405851       0.000043
                                                         1.305830       0.000104
                                                         6.597564       0.000000

                          1       3    2px               0.031084       0.001892
                                                         0.067814       0.021007
                                                         0.156146       0.058488
                                                         0.405851       0.080295
                                                         1.305830       0.074973
                                                         6.597564       0.056666
                          1       3    2py               0.031084       0.001892
                                                         0.067814       0.021007
                                                         0.156146       0.058488
                                                         0.405851       0.080295
                                                         1.305830       0.074973
                                                         6.597564       0.056666
                          1       3    2pz               0.031084       0.001892
                                                         0.067814       0.021007
                                                         0.156146       0.058488
                                                         0.405851       0.080295
                                                         1.305830       0.074973
                                                         6.597564       0.056666

                          1       4    3px               0.031084      -0.000945
                                                         0.067814       0.051077
                                                         0.156146      -0.000811
                                                         0.405851       0.008960
                                                         1.305830       0.038611
                                                         6.597564       0.000000
                          1       4    3py               0.031084      -0.000945
                                                         0.067814       0.051077
                                                         0.156146      -0.000811
                                                         0.405851       0.008960
                                                         1.305830       0.038611
                                                         6.597564       0.000000
                          1       4    3pz               0.031084      -0.000945
                                                         0.067814       0.051077
                                                         0.156146      -0.000811
                                                         0.405851       0.008960
                                                         1.305830       0.038611
                                                         6.597564       0.000000

                          1       5    3dx2              0.031084       0.000452
                                                         0.067814       0.006113
                                                         0.156146       0.034198
                                                         0.405851       0.019071
                                                         1.305830       0.147410
                                                         6.597564       0.000000
                          1       5    3dxy              0.031084       0.000782
                                                         0.067814       0.010588
                                                         0.156146       0.059232
                                                         0.405851       0.033031
                                                         1.305830       0.255321
                                                         6.597564       0.000000
                          1       5    3dxz              0.031084       0.000782
                                                         0.067814       0.010588
                                                         0.156146       0.059232
                                                         0.405851       0.033031
                                                         1.305830       0.255321
                                                         6.597564       0.000000
                          1       5    3dy2              0.031084       0.000452
                                                         0.067814       0.006113
                                                         0.156146       0.034198
                                                         0.405851       0.019071
                                                         1.305830       0.147410
                                                         6.597564       0.000000
                          1       5    3dyz              0.031084       0.000782
                                                         0.067814       0.010588
                                                         0.156146       0.059232
                                                         0.405851       0.033031
                                                         1.305830       0.255321
                                                         6.597564       0.000000
                          1       5    3dz2              0.031084       0.000452
                                                         0.067814       0.006113
                                                         0.156146       0.034198
                                                         0.405851       0.019071
                                                         1.305830       0.147410
                                                         6.597564       0.000000

                          2       1    1s              167.175846       0.303638
                                                        30.651508       0.458287
                                                         8.575187       0.601924
                                                         2.945808       0.593848
                                                         1.143944       0.328337
                                                         0.471139       0.052824

     RI Auxiliary Basis Set             RI_aug-SZV-MOLOPT-ae_N_RI_018_s_p_d_f_g_

       Number of orbital shell sets:                                           8
       Number of orbital shells:                                               8
       Number of primitive Cartesian functions:                                8
       Number of Cartesian basis functions:                                   19
       Number of spherical basis functions:                                   18
       Norm type:                                                              2

       Normalised Cartesian orbitals:

                        Set   Shell   Orbital            Exponent    Coefficient

                          1       1    1s                0.253689       0.254763

                          2       1    5px               0.257401       0.261338
                          2       1    5py               0.257401       0.261338
                          2       1    5pz               0.257401       0.261338

                          3       1    2s                0.742787       0.570241

                          4       1    8dx2              0.768670       1.038615
                          4       1    8dxy              0.768670       1.798934
                          4       1    8dxz              0.768670       1.798934
                          4       1    8dy2              0.768670       1.038615
                          4       1    8dyz              0.768670       1.798934
                          4       1    8dz2              0.768670       1.038615

                          5       1    6px               1.083889       1.576417
                          5       1    6py               1.083889       1.576417
                          5       1    6pz               1.083889       1.576417

                          6       1    7px               4.451553       9.216786
                          6       1    7py               4.451553       9.216786
                          6       1    7pz               4.451553       9.216786

                          7       1    3s                6.183616       2.794743

                          8       1    4s               31.308731       9.433203

       Atomic covalent radius [Angstrom]:                                  1.230

       Atomic van der Waals radius [Angstrom]:                             1.820

     The atoms of this atomic kind are PAW atoms (GAPW):
       Hard Gaussian function radius:                                      1.512
       Rho0 radius:                                                        1.512
       Maximum GTO radius used for PAW projector construction:            24.566

     GAPW Soft Basis Set                                  aug-SZV-MOLOPT-ae_soft

       Number of orbital shell sets:                                           2
       Number of orbital shells:                                               6
       Number of primitive Cartesian functions:                                8
       Number of Cartesian basis functions:                                   15
       Number of spherical basis functions:                                   14
       Norm type:                                                              2

       Normalised Cartesian orbitals:

                        Set   Shell   Orbital            Exponent    Coefficient

                          1       1    1s                0.031084       0.012700
                                                         0.067814       0.056364
                                                         0.156146       0.044301
                                                         0.405851      -0.012244
                                                         1.305830      -0.040912

                          1       2    2s                0.031084       0.052890
                                                         0.067814      -0.000168
                                                         0.156146      -0.000256
                                                         0.405851       0.000043
                                                         1.305830       0.000104

                          1       3    2px               0.031084       0.001892
                                                         0.067814       0.021007
                                                         0.156146       0.058488
                                                         0.405851       0.080295
                                                         1.305830       0.074973
                          1       3    2py               0.031084       0.001892
                                                         0.067814       0.021007
                                                         0.156146       0.058488
                                                         0.405851       0.080295
                                                         1.305830       0.074973
                          1       3    2pz               0.031084       0.001892
                                                         0.067814       0.021007
                                                         0.156146       0.058488
                                                         0.405851       0.080295
                                                         1.305830       0.074973

                          1       4    3px               0.031084      -0.000945
                                                         0.067814       0.051077
                                                         0.156146      -0.000811
                                                         0.405851       0.008960
                                                         1.305830       0.038611
                          1       4    3py               0.031084      -0.000945
                                                         0.067814       0.051077
                                                         0.156146      -0.000811
                                                         0.405851       0.008960
                                                         1.305830       0.038611
                          1       4    3pz               0.031084      -0.000945
                                                         0.067814       0.051077
                                                         0.156146      -0.000811
                                                         0.405851       0.008960
                                                         1.305830       0.038611

                          1       5    3dx2              0.031084       0.000452
                                                         0.067814       0.006113
                                                         0.156146       0.034198
                                                         0.405851       0.019071
                                                         1.305830       0.147410
                          1       5    3dxy              0.031084       0.000782
                                                         0.067814       0.010588
                                                         0.156146       0.059232
                                                         0.405851       0.033031
                                                         1.305830       0.255321
                          1       5    3dxz              0.031084       0.000782
                                                         0.067814       0.010588
                                                         0.156146       0.059232
                                                         0.405851       0.033031
                                                         1.305830       0.255321
                          1       5    3dy2              0.031084       0.000452
                                                         0.067814       0.006113
                                                         0.156146       0.034198
                                                         0.405851       0.019071
                                                         1.305830       0.147410
                          1       5    3dyz              0.031084       0.000782
                                                         0.067814       0.010588
                                                         0.156146       0.059232
                                                         0.405851       0.033031
                                                         1.305830       0.255321
                          1       5    3dz2              0.031084       0.000452
                                                         0.067814       0.006113
                                                         0.156146       0.034198
                                                         0.405851       0.019071
                                                         1.305830       0.147410

                          2       1    1s                2.945808       0.593848
                                                         1.143944       0.328337
                                                         0.471139       0.052824

     AE Potential information for                                            ALL

       Description:                                       All-electron potential
                                          Krack, Parrinello, PCCP 2, 2105 (2000)

       Gaussian exponent of the core charge distribution:               3.125000
       Electronic configuration (s p d ...):                           3   0   0

  2. Atomic kind: o                                     Number of atoms:       1

     Orbital Basis Set                                      aug-SZV-MOLOPT-ae-SR

       Number of orbital shell sets:                                           2
       Number of orbital shells:                                               6
       Number of primitive Cartesian functions:                                7
       Number of Cartesian basis functions:                                   15
       Number of spherical basis functions:                                   14
       Norm type:                                                              2

       Normalised Cartesian orbitals:

                        Set   Shell   Orbital            Exponent    Coefficient

                          1       1    1s                0.162492       0.000000
                                                         0.380389       0.241686
                                                         1.169596       0.320234
                                                         5.033151      -0.239413

                          1       2    2s                0.162492       0.120425
                                                         0.380389       0.131001
                                                         1.169596      -0.000041
                                                         5.033151      -0.089217

                          1       3    2px               0.162492       0.000000
                                                         0.380389       0.166903
                                                         1.169596       1.053568
                                                         5.033151       1.675450
                          1       3    2py               0.162492       0.000000
                                                         0.380389       0.166903
                                                         1.169596       1.053568
                                                         5.033151       1.675450
                          1       3    2pz               0.162492       0.000000
                                                         0.380389       0.166903
                                                         1.169596       1.053568
                                                         5.033151       1.675450

                          1       4    3px               0.162492       0.001278
                                                         0.380389       0.422682
                                                         1.169596       0.000775
                                                         5.033151       0.003884
                          1       4    3py               0.162492       0.001278
                                                         0.380389       0.422682
                                                         1.169596       0.000775
                                                         5.033151       0.003884
                          1       4    3pz               0.162492       0.001278
                                                         0.380389       0.422682
                                                         1.169596       0.000775
                                                         5.033151       0.003884

                          1       5    3dx2              0.162492      -0.037898
                                                         0.380389       0.380180
                                                         1.169596       0.208664
                                                         5.033151       1.207157
                          1       5    3dxy              0.162492      -0.065641
                                                         0.380389       0.658491
                                                         1.169596       0.361417
                                                         5.033151       2.090858
                          1       5    3dxz              0.162492      -0.065641
                                                         0.380389       0.658491
                                                         1.169596       0.361417
                                                         5.033151       2.090858
                          1       5    3dy2              0.162492      -0.037898
                                                         0.380389       0.380180
                                                         1.169596       0.208664
                                                         5.033151       1.207157
                          1       5    3dyz              0.162492      -0.065641
                                                         0.380389       0.658491
                                                         1.169596       0.361417
                                                         5.033151       2.090858
                          1       5    3dz2              0.162492      -0.037898
                                                         0.380389       0.380180
                                                         1.169596       0.208664
                                                         5.033151       1.207157

                          2       1    1s              130.709321       4.251943
                                                        23.808866       4.112294
                                                         6.443608       1.281623

     RI Auxiliary Basis Set             RI_aug-SZV-MOLOPT-ae-SR_N_RI_034_s_p_d_f

       Number of orbital shell sets:                                          12
       Number of orbital shells:                                              12
       Number of primitive Cartesian functions:                               12
       Number of Cartesian basis functions:                                   39
       Number of spherical basis functions:                                   34
       Norm type:                                                              2

       Normalised Cartesian orbitals:

                        Set   Shell   Orbital            Exponent    Coefficient

                          1       1    1s                0.437626       0.383475

                          2       1   10dx2              0.833911       1.197758
                          2       1   10dxy              0.833911       2.074578
                          2       1   10dxz              0.833911       2.074578
                          2       1   10dy2              0.833911       1.197758
                          2       1   10dyz              0.833911       2.074578
                          2       1   10dz2              0.833911       1.197758

                          3       1    6px               0.900493       1.250376
                          3       1    6py               0.900493       1.250376
                          3       1    6pz               0.900493       1.250376

                          4       1   12fx3              1.229346       2.342726
                          4       1   12fx2y             1.229346       5.238494
                          4       1   12fx2z             1.229346       5.238494
                          4       1   12fxy2             1.229346       5.238494
                          4       1   12fxyz             1.229346       9.073337
                          4       1   12fxz2             1.229346       5.238494
                          4       1   12fy3              1.229346       2.342726
                          4       1   12fy2z             1.229346       5.238494
                          4       1   12fyz2             1.229346       5.238494
                          4       1   12fz3              1.229346       2.342726

                          5       1    7px               1.580726       2.526451
                          5       1    7py               1.580726       2.526451
                          5       1    7pz               1.580726       2.526451

                          6       1    2s                1.930028       1.167032

                          7       1   11dx2              3.355577      13.693108
                          7       1   11dxy              3.355577      23.717160
                          7       1   11dxz              3.355577      23.717160
                          7       1   11dy2              3.355577      13.693108
                          7       1   11dyz              3.355577      23.717160
                          7       1   11dz2              3.355577      13.693108

                          8       1    3s                7.045462       3.082068

                          9       1    8px               7.187234      16.774219
                          9       1    8py               7.187234      16.774219
                          9       1    8pz               7.187234      16.774219

                         10       1    9px              31.206613     105.135257
                         10       1    9py              31.206613     105.135257
                         10       1    9pz              31.206613     105.135257

                         11       1    4s               33.536295       9.932222

                         12       1    5s              158.844986      31.888950

       Atomic covalent radius [Angstrom]:                                  0.730

       Atomic van der Waals radius [Angstrom]:                             1.520

     The atoms of this atomic kind are PAW atoms (GAPW):
       Hard Gaussian function radius:                                      1.512
       Rho0 radius:                                                        1.512
       Maximum GTO radius used for PAW projector construction:            24.566

     GAPW Soft Basis Set                               aug-SZV-MOLOPT-ae-SR_soft

       Number of orbital shell sets:                                           2
       Number of orbital shells:                                               6
       Number of primitive Cartesian functions:                                3
       Number of Cartesian basis functions:                                   15
       Number of spherical basis functions:                                   14
       Norm type:                                                              2

       Normalised Cartesian orbitals:

                        Set   Shell   Orbital            Exponent    Coefficient

                          1       1    1s                0.162492       0.000000
                                                         0.380389       0.241686
                                                         1.169596       0.320234

                          1       2    2s                0.162492       0.120425
                                                         0.380389       0.131001
                                                         1.169596      -0.000041

                          1       3    2px               0.162492       0.000000
                                                         0.380389       0.166903
                                                         1.169596       1.053568
                          1       3    2py               0.162492       0.000000
                                                         0.380389       0.166903
                                                         1.169596       1.053568
                          1       3    2pz               0.162492       0.000000
                                                         0.380389       0.166903
                                                         1.169596       1.053568

                          1       4    3px               0.162492       0.001278
                                                         0.380389       0.422682
                                                         1.169596       0.000775
                          1       4    3py               0.162492       0.001278
                                                         0.380389       0.422682
                                                         1.169596       0.000775
                          1       4    3pz               0.162492       0.001278
                                                         0.380389       0.422682
                                                         1.169596       0.000775

                          1       5    3dx2              0.162492      -0.037898
                                                         0.380389       0.380180
                                                         1.169596       0.208664
                          1       5    3dxy              0.162492      -0.065641
                                                         0.380389       0.658491
                                                         1.169596       0.361417
                          1       5    3dxz              0.162492      -0.065641
                                                         0.380389       0.658491
                                                         1.169596       0.361417
                          1       5    3dy2              0.162492      -0.037898
                                                         0.380389       0.380180
                                                         1.169596       0.208664
                          1       5    3dyz              0.162492      -0.065641
                                                         0.380389       0.658491
                                                         1.169596       0.361417
                          1       5    3dz2              0.162492      -0.037898
                                                         0.380389       0.380180
                                                         1.169596       0.208664

                          2       1    1s         

     AE Potential information for                                            ALL

       Description:                                       All-electron potential
                                          Krack, Parrinello, PCCP 2, 2105 (2000)

       Gaussian exponent of the core charge distribution:               8.154466
       Electronic configuration (s p d ...):                           4   4   0


 MOLECULE KIND INFORMATION


 All atoms are their own molecule, skipping detailed information


 TOTAL NUMBERS AND MAXIMUM NUMBERS

  Total number of            - Atomic kinds:                                   2
                             - Atoms:                                          2
                             - Shell sets:                                     4
                             - Shells:                                        12
                             - Primitive Cartesian functions:                 19
                             - Cartesian basis functions:                     30
                             - Spherical basis functions:                     28

  Maximum angular momentum of the orbital basis functions:                     2


 MODULE QUICKSTEP: ATOMIC COORDINATES IN ANGSTROM

   Atom Kind Element         X             Y             Z       Z(eff)     Mass
      1    1 li    3     15.000000     15.000000     15.794323   3.0000   6.9410
      2    2 o     8     15.000000     15.000000     14.205677   8.0000  15.9994



 SCF PARAMETERS         Density guess:                                    ATOMIC
                        --------------------------------------------------------
                        max_scf:                                             500
                        max_scf_history:                                       0
                        max_diis:                                              4
                        --------------------------------------------------------
                        eps_scf:                                        1.00E-06
                        eps_scf_history:                                0.00E+00
                        eps_diis:                                       1.00E-01
                        eps_eigval:                                     1.00E-05
                        --------------------------------------------------------
                        level_shift [a.u.]:                             0.000000
                        added MOs                                        22    0
                        --------------------------------------------------------
                        Mixing method:                            BROYDEN_MIXING
                                                charge density mixing in g-space
                        --------------------------------------------------------
                        Smear method:                                FERMI_DIRAC
                        Electronic temperature [K]:                        300.0
                        Electronic temperature [a.u.]:                  9.50E-04
                        Accuracy threshold:                             1.00E-10
                        --------------------------------------------------------
                        No outer SCF

 PW_GRID| Information for grid number                                          1
 PW_GRID| Grid distributed over                                    48 processors
 PW_GRID| Real space group dimensions                                    48    1
 PW_GRID| the grid is blocked:                                                NO
 PW_GRID| Cutoff [a.u.]                                                    250.0
 PW_GRID| spherical cutoff:                                                   NO
 PW_GRID|   Bounds   1           -202     202                Points:         405
 PW_GRID|   Bounds   2           -202     202                Points:         405
 PW_GRID|   Bounds   3           -202     202                Points:         405
 PW_GRID| Volume element (a.u.^3)  0.2743E-02     Volume (a.u.^3)    182205.0337
 PW_GRID| Grid span                                                    FULLSPACE
 PW_GRID|   Distribution                         Average         Max         Min
 PW_GRID|   G-Vectors                          1383960.9     1384290     1383885
 PW_GRID|   G-Rays                                3417.2        3418        3417
 PW_GRID|   Real Space Points                  1383960.9     1476225     1312200

 PW_GRID| Information for grid number                                          2
 PW_GRID| Number of the reference grid                                         1
 PW_GRID| Grid distributed over                                    48 processors
 PW_GRID| Real space group dimensions                                    48    1
 PW_GRID| the grid is blocked:                                                NO
 PW_GRID| Cutoff [a.u.]                                                     83.3
 PW_GRID| spherical cutoff:                                                   NO
 PW_GRID|   Bounds   1           -120     119                Points:         240
 PW_GRID|   Bounds   2           -120     119                Points:         240
 PW_GRID|   Bounds   3           -120     119                Points:         240
 PW_GRID| Volume element (a.u.^3)  0.1318E-01     Volume (a.u.^3)    182205.0337
 PW_GRID| Grid span                                                    FULLSPACE
 PW_GRID|   Distribution                         Average         Max         Min
 PW_GRID|   G-Vectors                           288000.0      288720      287520
 PW_GRID|   G-Rays                                1200.0        1203        1198
 PW_GRID|   Real Space Points                   288000.0      288000      288000

 PW_GRID| Information for grid number                                          3
 PW_GRID| Number of the reference grid                                         1
 PW_GRID| Grid distributed over                                    48 processors
 PW_GRID| Real space group dimensions                                    48    1
 PW_GRID| the grid is blocked:                                                NO
 PW_GRID| Cutoff [a.u.]                                                     27.8
 PW_GRID| spherical cutoff:                                                   NO
 PW_GRID|   Bounds   1            -67      67                Points:         135
 PW_GRID|   Bounds   2            -67      67                Points:         135
 PW_GRID|   Bounds   3            -67      67                Points:         135
 PW_GRID| Volume element (a.u.^3)  0.7406E-01     Volume (a.u.^3)    182205.0337
 PW_GRID| Grid span                                                    FULLSPACE
 PW_GRID|   Distribution                         Average         Max         Min
 PW_GRID|   G-Vectors                            51257.8       51570       51030
 PW_GRID|   G-Rays                                 379.7         382         378
 PW_GRID|   Real Space Points                    51257.8       54675       36450

 PW_GRID| Information for grid number                                          4
 PW_GRID| Number of the reference grid                                         1
 PW_GRID| Grid distributed over                                    48 processors
 PW_GRID| Real space group dimensions                                    48    1
 PW_GRID| the grid is blocked:                                                NO
 PW_GRID| Cutoff [a.u.]                                                      9.3
 PW_GRID| spherical cutoff:                                                   NO
 PW_GRID|   Bounds   1            -40      39                Points:          80
 PW_GRID|   Bounds   2            -40      39                Points:          80
 PW_GRID|   Bounds   3            -40      39                Points:          80
 PW_GRID| Volume element (a.u.^3)  0.3559         Volume (a.u.^3)    182205.0337
 PW_GRID| Grid span                                                    FULLSPACE
 PW_GRID|   Distribution                         Average         Max         Min
 PW_GRID|   G-Vectors                            10666.7       10800       10560
 PW_GRID|   G-Rays                                 133.3         135         132
 PW_GRID|   Real Space Points                    10666.7       12800        6400

 POISSON| Solver                                                         WAVELET
 POISSON| Wavelet| Scaling function                                           40
 POISSON| Periodicity                                                       NONE

 RS_GRID| Information for grid number                                          1
 RS_GRID|   Bounds   1           -202     202                Points:         405
 RS_GRID|   Bounds   2           -202     202                Points:         405
 RS_GRID|   Bounds   3           -202     202                Points:         405
 RS_GRID| Real space distribution over                                  3 groups
 RS_GRID| Real space distribution along direction                              1
 RS_GRID| Border size                                                         35
 RS_GRID| Real space distribution over                                  4 groups
 RS_GRID| Real space distribution along direction                              2
 RS_GRID| Border size                                                         35
 RS_GRID| Real space distribution over                                  4 groups
 RS_GRID| Real space distribution along direction                              3
 RS_GRID| Border size                                                         35
 RS_GRID|   Distribution                         Average         Max         Min
 RS_GRID|   Planes                                 205.0         205         205
 RS_GRID|   Distribution                         Average         Max         Min
 RS_GRID|   Planes                                 171.2         172         171
 RS_GRID|   Distribution                         Average         Max         Min
 RS_GRID|   Planes                                 171.2         172         171

 RS_GRID| Information for grid number                                          2
 RS_GRID|   Bounds   1           -120     119                Points:         240
 RS_GRID|   Bounds   2           -120     119                Points:         240
 RS_GRID|   Bounds   3           -120     119                Points:         240
 RS_GRID| Real space distribution over                                  3 groups
 RS_GRID| Real space distribution along direction                              1
 RS_GRID| Border size                                                         37
 RS_GRID| Real space distribution over                                  4 groups
 RS_GRID| Real space distribution along direction                              2
 RS_GRID| Border size                                                         37
 RS_GRID| Real space distribution over                                  4 groups
 RS_GRID| Real space distribution along direction                              3
 RS_GRID| Border size                                                         37
 RS_GRID|   Distribution                         Average         Max         Min
 RS_GRID|   Planes                                 154.0         154         154
 RS_GRID|   Distribution                         Average         Max         Min
 RS_GRID|   Planes                                 134.0         134         134
 RS_GRID|   Distribution                         Average         Max         Min
 RS_GRID|   Planes                                 134.0         134         134

 RS_GRID| Information for grid number                                          3
 RS_GRID|   Bounds   1            -67      67                Points:         135
 RS_GRID|   Bounds   2            -67      67                Points:         135
 RS_GRID|   Bounds   3            -67      67                Points:         135
 RS_GRID| Real space fully replicated
 RS_GRID| Group size                                                           1

 RS_GRID| Information for grid number                                          4
 RS_GRID|   Bounds   1            -40      39                Points:          80
 RS_GRID|   Bounds   2            -40      39                Points:          80
 RS_GRID|   Bounds   3            -40      39                Points:          80
 RS_GRID| Real space fully replicated
 RS_GRID| Group size                                                           1

  HFX_INFO| Replica ID:                                                        1
  HFX_INFO| FRACTION:                                               0.2500000000
  HFX_INFO| Interaction Potential:                                       COULOMB
  HFX_INFO| EPS_SCHWARZ:                                                 1.0E-10
  HFX_INFO| EPS_SCHWARZ_FORCES                                           1.0E-08
  HFX_INFO| EPS_STORAGE_SCALING:                                         1.0E+00
  HFX_INFO| NBINS:                                                            64
  HFX_INFO| BLOCK_SIZE:                                                        1
  HFX_INFO| Number of periodic shells considered:                           NONE
  HFX_INFO| Number of periodic cells considered:                            NONE

 
 RI-RPA| using GPW style
 

 OVERLAP MATRIX CONDITION NUMBER
 1-Norm Condition Number (Estimate)
   CN : |A|*|A^-1|:  4.716E+000 *  1.503E+002   = 7.089E+002  Log(1-CN):  2.8506
 1-Norm and 2-Norm Condition Numbers using Diagonalization
   CN : |A|*|A^-1|:  4.716E+000 *  1.503E+002   = 7.089E+002  Log(1-CN):  2.8506
   CN : max/min ev:  3.370E+000 /  1.077E-002   = 3.129E+002  Log(2-CN):  2.4954

 Number of electrons:                                                         11
 Number of occupied orbitals:                                                  6
 Number of molecular orbitals:                                                28

 Number of orbital functions:                                                 28
 Number of independent orbital functions:                                     28

 Extrapolation method: initial_guess

 Atomic guess: The first density matrix is obtained in terms of atomic orbitals
               and electronic configurations assigned to each atomic kind

 Guess for atomic kind: li

 Electronic structure
    Total number of core electrons                                          0.00
    Total number of valence electrons                                       3.00
    Total number of electrons                                               3.00
    Multiplicity                                                   not specified
    S      2.00  1.00


 *******************************************************************************
                  Iteration          Convergence                     Energy [au]
 *******************************************************************************
                          1        0.202411E-01                  -7.312657268297
                          2        0.138544E-02                  -7.312790799951
                          3        0.998413E-04                  -7.312791595344
                          4        0.135314E-06                  -7.312791602719

 Energy components [Hartree]           Total Energy ::           -7.312791602719
                                        Band Energy ::           -3.804143623497
                                     Kinetic Energy ::            7.228768871590
                                   Potential Energy ::          -14.541560474309
                                      Virial (-V/T) ::            2.011623380498
                                        Core Energy ::           -9.676221740042
                                          XC Energy ::           -1.669700551228
                                     Coulomb Energy ::            4.033130688551

 Orbital energies  State     L     Occupation   Energy[a.u.]          Energy[eV]

                       1     0          2.000      -1.849901          -50.338356
                       2     0          1.000      -0.104342           -2.839301


 Total Electron Density at R=0:                                        10.832580

 Guess for atomic kind: o

 Electronic structure
    Total number of core electrons                                          0.00
    Total number of valence electrons                                       8.00
    Total number of electrons                                               8.00
    Multiplicity                                                   not specified
    S      2.00  2.00
    P      4.00


 *******************************************************************************
                  Iteration          Convergence                     Energy [au]
 *******************************************************************************
                          1        0.599527                     -73.375601368339
                          2        0.408940                     -73.402965239786
                          3        0.467422E-03                 -73.427671829740
                          4        0.397273E-04                 -73.427671891487
                          5        0.331032E-07                 -73.427671891704

 Energy components [Hartree]           Total Energy ::          -73.427671891704
                                        Band Energy ::          -39.525441932717
                                     Kinetic Energy ::           72.007128165258
                                   Potential Energy ::         -145.434800056962
                                      Virial (-V/T) ::            2.019727820879
                                        Core Energy ::         -102.018515532458
                                          XC Energy ::           -7.787812391279
                                     Coulomb Energy ::           36.378656032034

 Orbital energies  State     L     Occupation   Energy[a.u.]          Energy[eV]

                       1     0          2.000     -18.561766         -505.091352
                       2     0          2.000      -0.788492          -21.455956

                       1     1          4.000      -0.206231           -5.611839


 Total Electron Density at R=0:                                       192.964800
 Re-scaling the density matrix to get the right number of electrons
                  # Electrons              Trace(P)               Scaling factor
                           11                11.000                        1.000


 SCF WAVEFUNCTION OPTIMIZATION

  Step     Update method      Time    Convergence         Total energy    Change
  ------------------------------------------------------------------------------

  HFX_MEM_INFO| Est. max. program size before HFX [MiB]:                    1317
  HFX_MEM_INFO| Number of cart. primitive ERI's calculated:             54916178
  HFX_MEM_INFO| Number of sph. ERI's calculated:                          230496
  HFX_MEM_INFO| Number of sph. ERI's stored in-core:                      230496
  HFX_MEM_INFO| Number of sph. ERI's stored on disk:                           0
  HFX_MEM_INFO| Number of sph. ERI's calculated on the fly:                    0
  HFX_MEM_INFO| Total memory consumption ERI's RAM [MiB]:                      3
  HFX_MEM_INFO| Whereof max-vals [MiB]:                                        2
  HFX_MEM_INFO| Total compression factor ERI's RAM:                         0.76
  HFX_MEM_INFO| Total memory consumption ERI's disk [MiB]:                     0
  HFX_MEM_INFO| Total compression factor ERI's disk:                        0.00
  HFX_MEM_INFO| Size of density/Fock matrix [MiB]:                             0
  HFX_MEM_INFO| Size of buffers [MiB]:                                         0
  HFX_MEM_INFO| Est. max. program size after HFX  [MiB]:                    1827

     1 NoMix/Diag. 0.10E+00    5.4     0.80761407       -81.3439367431 -8.13E+01
     2 Broy./Diag. 0.10E+00    2.6     0.12286746       -80.7126063275  6.31E-01
     3 Broy./Diag. 0.10E+00    2.6     0.01474551       -81.0581160550 -3.46E-01
     4 Broy./Diag. 0.10E+00    2.7     0.11251596       -81.3178979251 -2.60E-01
     5 Broy./Diag. 0.10E+00    2.7     0.05000439       -81.5848297883 -2.67E-01
     6 Broy./Diag. 0.10E+00    2.7     0.02837215       -81.4764626472  1.08E-01
     7 Broy./Diag. 0.10E+00    2.8     0.02160148       -81.4578235323  1.86E-02
     8 Broy./Diag. 0.10E+00    2.8     0.05085698       -81.4601795922 -2.36E-03
     9 Broy./Diag. 0.10E+00    2.9     0.28126456       -81.4782474641 -1.81E-02
    10 Broy./Diag. 0.10E+00    2.9     0.03802529       -81.5043743483 -2.61E-02
    11 Broy./Diag. 0.10E+00    2.9     0.01851999       -81.5268638547 -2.25E-02
    12 Broy./Diag. 0.10E+00    2.9     0.01749875       -81.5730148094 -4.62E-02
    13 Broy./Diag. 0.10E+00    2.9     0.00780090       -81.5926397923 -1.96E-02
    14 Broy./Diag. 0.10E+00    2.9     0.00457929       -81.5817703462  1.09E-02
    15 Broy./Diag. 0.10E+00    3.0     0.00169664       -81.5723919450  9.38E-03
    16 Broy./Diag. 0.10E+00    2.9     0.00068047       -81.5703070790  2.08E-03
    17 Broy./Diag. 0.10E+00    2.9     0.00280412       -81.5691147816  1.19E-03
    18 Broy./Diag. 0.10E+00    2.9     0.01776177       -81.5705431270 -1.43E-03
    19 Broy./Diag. 0.10E+00    2.9     0.02980364       -81.5970067232 -2.65E-02
    20 Broy./Diag. 0.10E+00    2.9     0.03407406       -81.7190158544 -1.22E-01
    21 Broy./Diag. 0.10E+00    3.0     0.07258094       -81.6029228972  1.16E-01
    22 Broy./Diag. 0.10E+00    2.9     0.02328515       -81.3207410925  2.82E-01
    23 Broy./Diag. 0.10E+00    2.9     0.04469186       -81.3869065976 -6.62E-02
    24 Broy./Diag. 0.10E+00    2.9     0.00755252       -81.5435106860 -1.57E-01
    25 Broy./Diag. 0.10E+00    2.9     0.01669020       -81.5926339838 -4.91E-02
    26 Broy./Diag. 0.10E+00    2.9     0.02664757       -81.5983683401 -5.73E-03
    27 Broy./Diag. 0.10E+00    2.9     0.00935290       -81.5345656619  6.38E-02
    28 Broy./Diag. 0.10E+00    2.9     0.00676003       -81.5410383853 -6.47E-03
    29 Broy./Diag. 0.10E+00    2.9     0.00501601       -81.5368767576  4.16E-03
    30 Broy./Diag. 0.10E+00    2.9     0.00244801       -81.5576359647 -2.08E-02
    31 Broy./Diag. 0.10E+00    2.9     0.00348629       -81.5696700029 -1.20E-02
    32 Broy./Diag. 0.10E+00    2.9     0.00509660       -81.5750954113 -5.43E-03
    33 Broy./Diag. 0.10E+00    2.9     0.00081889       -81.5674563984  7.64E-03
    34 Broy./Diag. 0.10E+00    2.9     0.00097623       -81.5663859350  1.07E-03
    35 Broy./Diag. 0.10E+00    2.9     0.00090310       -81.5623537121  4.03E-03
    36 Broy./Diag. 0.10E+00    2.9     0.00066538       -81.5609542991  1.40E-03
    37 Broy./Diag. 0.10E+00    2.9     0.00048886       -81.5612241354 -2.70E-04
    38 Broy./Diag. 0.10E+00    2.9     0.00015416       -81.5613310548 -1.07E-04
    39 Broy./Diag. 0.10E+00    3.0     0.00043594       -81.5613038107  2.72E-05
    40 Broy./Diag. 0.10E+00    2.9     0.00017661       -81.5610249316  2.79E-04
    41 Broy./Diag. 0.10E+00    2.9     0.00150265       -81.5611942192 -1.69E-04
    42 Broy./Diag. 0.10E+00    2.9     0.00025332       -81.5607323274  4.62E-04
    43 Broy./Diag. 0.10E+00    2.9     0.00031731       -81.5607712327 -3.89E-05
    44 Broy./Diag. 0.10E+00    2.9     0.00013129       -81.5610016431 -2.30E-04
    45 Broy./Diag. 0.10E+00    2.9     0.00096109       -81.5610281235 -2.65E-05
    46 Broy./Diag. 0.10E+00    2.9     0.00016883       -81.5608228893  2.05E-04
    47 Broy./Diag. 0.10E+00    2.9     0.00009596       -81.5605485776  2.74E-04
    48 Broy./Diag. 0.10E+00    2.9     0.00022793       -81.5605587522 -1.02E-05
    49 Broy./Diag. 0.10E+00    2.9     0.00036262       -81.5607312339 -1.72E-04
    50 Broy./Diag. 0.10E+00    2.9     0.00008856       -81.5608757217 -1.44E-04
    51 Broy./Diag. 0.10E+00    2.9     0.00005700       -81.5606813793  1.94E-04
    52 Broy./Diag. 0.10E+00    2.9     0.00001148       -81.5606898925 -8.51E-06
    53 Broy./Diag. 0.10E+00    2.9     0.00007561       -81.5606044833  8.54E-05
    54 Broy./Diag. 0.10E+00    2.9     0.00001716       -81.5606206773 -1.62E-05
    55 Broy./Diag. 0.10E+00    2.9     0.00001609       -81.5605421874  7.85E-05
    56 Broy./Diag. 0.10E+00    2.9     0.00001946       -81.5605063947  3.58E-05
    57 Broy./Diag. 0.10E+00    2.9     0.00000858       -81.5605854553 -7.91E-05
    58 Broy./Diag. 0.10E+00    2.9     0.00001095       -81.5606300619 -4.46E-05
    59 Broy./Diag. 0.10E+00    2.9     0.00001553       -81.5606191233  1.09E-05
    60 Broy./Diag. 0.10E+00    2.9     0.00001123       -81.5606050526  1.41E-05
    61 Broy./Diag. 0.10E+00    2.9     0.00000639       -81.5606328974 -2.78E-05
    62 Broy./Diag. 0.10E+00    2.9     0.00000653       -81.5606309245  1.97E-06
    63 Broy./Diag. 0.10E+00    2.9     0.00000851       -81.5606281482  2.78E-06
    64 Broy./Diag. 0.10E+00    2.9     0.00000236       -81.5606061142  2.20E-05
    65 Broy./Diag. 0.10E+00    2.9     0.00000386       -81.5606086571 -2.54E-06
    66 Broy./Diag. 0.10E+00    2.9     0.00000190       -81.5606087100 -5.29E-08
    67 Broy./Diag. 0.10E+00    2.9     0.00000102       -81.5606124690 -3.76E-06
    68 Broy./Diag. 0.10E+00    2.9     0.00000259       -81.5606107290  1.74E-06
    69 Broy./Diag. 0.10E+00    2.9     0.00000119       -81.5606110233 -2.94E-07
    70 Broy./Diag. 0.10E+00    3.0     0.00000041       -81.5606101094  9.14E-07

  *** SCF run converged in    70 steps ***


  Electronic density on regular grids:         -8.2692988393        2.7307011607
  Core density on regular grids:               11.0000000000        0.0000000000
  Hard and soft densities (Lebedev):          -23.1343491563      -20.4036527174
  Total Rho_soft + Rho1_hard - Rho1_soft      -10.9999952782
  Total charge density (r-space):               0.0000047218
  Total Rho_soft + Rho0_soft (g-space):         0.0000046300

  Overlap energy of the core charge distribution:               0.00000000140235
  Self energy of the core charge distribution:                -79.25725304278079
  Core Hamiltonian energy:                                     -6.09207448116102
  Hartree energy:                                              14.49001463687576
  Exchange-correlation energy:                                 -3.36278755977418
  Hartree-Fock Exchange energy:                                -2.46228505095692

  GAPW| Exc from hard and soft atomic rho1:                    -4.41384767205717
  GAPW| local Eh = 1 center integrals:                         -0.46105989949631
  Electronic entropic energy:                                  -0.00131704147593
  Fermi energy:                                                -0.17728299681408

  Total energy:                                               -81.56061010942423

 !-----------------------------------------------------------------------------!
                     Mulliken Population Analysis

 #  Atom  Element  Kind  Atomic population                           Net charge
       1     li       1          3.218688                             -0.218688
       2     o        2          7.781312                              0.218688
 # Total charge                             11.000000                 -0.000000

 !-----------------------------------------------------------------------------!

 !-----------------------------------------------------------------------------!
                           Hirshfeld Charges

  #Atom  Element  Kind  Ref Charge     Population                    Net charge
      1       li     1       3.000          2.835                         0.165
      2       o      2       8.000          8.162                        -0.162

  Total Charge                                                            0.003
 !-----------------------------------------------------------------------------!


 RI-RPA section
 --------------

  Used number of processes per group:                                          1
  Maximum allowed memory usage per MPI process:                      1024.00 MiB
  RI_INFO| Cholesky decomposition group size:                                  4
  RI_INFO| Number of groups for auxiliary basis functions                     48

  RI_INFO| RI metric:                                                    COULOMB
  RI_INFO| Number of auxiliary basis functions:                               52
  GENERAL_INFO| Number of basis functions:                                    28
  GENERAL_INFO| Number of occupied orbitals:                                   6
  GENERAL_INFO| Number of virtual orbitals:                                   22
  RI_INFO| Total memory for (ia|K) integrals:                           0.05 MiB
  RI_INFO| Total memory for G0W0-(nm|K) integrals:                      0.31 MiB
  RI_INFO| Total memory for (ij|K) integrals:                           0.01 MiB
  RI_INFO| Total memory for (ab|K) integrals:                           0.19 MiB
  RI_INFO| Group size for frequency integration:                              48
  INTEG_INFO| Clenshaw-Curtius quadrature
  INTEG_INFO| Number of integration points:                                  100
  INTEG_INFO| Number of integration points per RPA group:                    100
  MATRIX_INFO| Number row processes:                                           6
  MATRIX_INFO| Number column processes:                                        8
  MATRIX_INFO| Row block size:                                                 4
  MATRIX_INFO| Column block size:                                              8
  INTEG_INFO| Scaling parameter:                                         0.20000
  INTEG_INFO| Started with Integration point   1 of 100
  INTEG_INFO| Started with Integration point   2 of 100
  INTEG_INFO| Started with Integration point   3 of 100
  INTEG_INFO| Started with Integration point   4 of 100
  INTEG_INFO| Started with Integration point   5 of 100
  INTEG_INFO| Started with Integration point   6 of 100
  INTEG_INFO| Started with Integration point   7 of 100
  INTEG_INFO| Started with Integration point   8 of 100
  INTEG_INFO| Started with Integration point   9 of 100
  INTEG_INFO| Started with Integration point  10 of 100
  INTEG_INFO| Started with Integration point  11 of 100
  INTEG_INFO| Started with Integration point  12 of 100
  INTEG_INFO| Started with Integration point  13 of 100
  INTEG_INFO| Started with Integration point  14 of 100
  INTEG_INFO| Started with Integration point  15 of 100
  INTEG_INFO| Started with Integration point  16 of 100
  INTEG_INFO| Started with Integration point  17 of 100
  INTEG_INFO| Started with Integration point  18 of 100
  INTEG_INFO| Started with Integration point  19 of 100
  INTEG_INFO| Started with Integration point  20 of 100
  INTEG_INFO| Started with Integration point  21 of 100
  INTEG_INFO| Started with Integration point  22 of 100
  INTEG_INFO| Started with Integration point  23 of 100
  INTEG_INFO| Started with Integration point  24 of 100
  INTEG_INFO| Started with Integration point  25 of 100
  INTEG_INFO| Started with Integration point  26 of 100
  INTEG_INFO| Started with Integration point  27 of 100
  INTEG_INFO| Started with Integration point  28 of 100
  INTEG_INFO| Started with Integration point  29 of 100
  INTEG_INFO| Started with Integration point  30 of 100
  INTEG_INFO| Started with Integration point  31 of 100
  INTEG_INFO| Started with Integration point  32 of 100
  INTEG_INFO| Started with Integration point  33 of 100
  INTEG_INFO| Started with Integration point  34 of 100
  INTEG_INFO| Started with Integration point  35 of 100
  INTEG_INFO| Started with Integration point  36 of 100
  INTEG_INFO| Started with Integration point  37 of 100
  INTEG_INFO| Started with Integration point  38 of 100
  INTEG_INFO| Started with Integration point  39 of 100
  INTEG_INFO| Started with Integration point  40 of 100
  INTEG_INFO| Started with Integration point  41 of 100
  INTEG_INFO| Started with Integration point  42 of 100
  INTEG_INFO| Started with Integration point  43 of 100
  INTEG_INFO| Started with Integration point  44 of 100
  INTEG_INFO| Started with Integration point  45 of 100
  INTEG_INFO| Started with Integration point  46 of 100
  INTEG_INFO| Started with Integration point  47 of 100
  INTEG_INFO| Started with Integration point  48 of 100
  INTEG_INFO| Started with Integration point  49 of 100
  INTEG_INFO| Started with Integration point  50 of 100
  INTEG_INFO| Started with Integration point  51 of 100
  INTEG_INFO| Started with Integration point  52 of 100
  INTEG_INFO| Started with Integration point  53 of 100
  INTEG_INFO| Started with Integration point  54 of 100
  INTEG_INFO| Started with Integration point  55 of 100
  INTEG_INFO| Started with Integration point  56 of 100
  INTEG_INFO| Started with Integration point  57 of 100
  INTEG_INFO| Started with Integration point  58 of 100
  INTEG_INFO| Started with Integration point  59 of 100
  INTEG_INFO| Started with Integration point  60 of 100
  INTEG_INFO| Started with Integration point  61 of 100
  INTEG_INFO| Started with Integration point  62 of 100
  INTEG_INFO| Started with Integration point  63 of 100
  INTEG_INFO| Started with Integration point  64 of 100
  INTEG_INFO| Started with Integration point  65 of 100
  INTEG_INFO| Started with Integration point  66 of 100
  INTEG_INFO| Started with Integration point  67 of 100
  INTEG_INFO| Started with Integration point  68 of 100
  INTEG_INFO| Started with Integration point  69 of 100
  INTEG_INFO| Started with Integration point  70 of 100
  INTEG_INFO| Started with Integration point  71 of 100
  INTEG_INFO| Started with Integration point  72 of 100
  INTEG_INFO| Started with Integration point  73 of 100
  INTEG_INFO| Started with Integration point  74 of 100
  INTEG_INFO| Started with Integration point  75 of 100
  INTEG_INFO| Started with Integration point  76 of 100
  INTEG_INFO| Started with Integration point  77 of 100
  INTEG_INFO| Started with Integration point  78 of 100
  INTEG_INFO| Started with Integration point  79 of 100
  INTEG_INFO| Started with Integration point  80 of 100
  INTEG_INFO| Started with Integration point  81 of 100
  INTEG_INFO| Started with Integration point  82 of 100
  INTEG_INFO| Started with Integration point  83 of 100
  INTEG_INFO| Started with Integration point  84 of 100
  INTEG_INFO| Started with Integration point  85 of 100
  INTEG_INFO| Started with Integration point  86 of 100
  INTEG_INFO| Started with Integration point  87 of 100
  INTEG_INFO| Started with Integration point  88 of 100
  INTEG_INFO| Started with Integration point  89 of 100
  INTEG_INFO| Started with Integration point  90 of 100
  INTEG_INFO| Started with Integration point  91 of 100
  INTEG_INFO| Started with Integration point  92 of 100
  INTEG_INFO| Started with Integration point  93 of 100
  INTEG_INFO| Started with Integration point  94 of 100
  INTEG_INFO| Started with Integration point  95 of 100
  INTEG_INFO| Started with Integration point  96 of 100
  INTEG_INFO| Started with Integration point  97 of 100
  INTEG_INFO| Started with Integration point  98 of 100
  INTEG_INFO| Started with Integration point  99 of 100
  INTEG_INFO| Started with Integration point 100 of 100
  PERFORMANCE| Average DGEMM flop rate (Gflops / MPI rank):                 0.01
  
  
  ******************************************************************************
  **                                                                          **
  **                        GW QUASIPARTICLE ENERGIES                         **
  **                                                                          **
  ******************************************************************************
   
   
  The GW quasiparticle energies are calculated according to: 
   
                      E_GW = E_SCF + Sigc(E_GW) + Sigx - vxc 
   
  Upper equation is solved self-consistently for E_GW, see Eq. (12) in J. Phys.
  Chem. Lett. 9, 306 (2018), doi: 10.1021/acs.jpclett.7b02740
  
  
  ------------
  G0W0 results
  ------------
   
  Molecular orbital   E_SCF (eV)       Sigc (eV)   Sigx-vxc (eV)       E_GW (eV)
     1 ( occ )         -518.7773         -1.8052        -36.5655       -557.1480
     2 ( occ )          -53.3279          2.9824        -11.7507        -62.0963
     3 ( occ )          -22.9619          8.0063         -9.9496        -24.9052
     4 ( occ )           -6.2166          3.6404         -5.5821         -8.1583
     5 ( occ )           -5.9182          3.0620         -4.7852         -7.6414
     6 ( occ )           -4.8241          3.7272         -7.4540         -8.5509
     7 ( vir )           -0.9078         -0.2570          1.4946          0.3298
     8 ( vir )            1.8432         -0.3362          1.9812          3.4881
     9 ( vir )            1.8455         -0.0174          1.6610          3.4892
    10 ( vir )            2.5718         -0.2752          1.8188          4.1155
    11 ( vir )            5.1996         -0.3666          2.3310          7.1639
    12 ( vir )            6.9205         -0.3313          2.2558          8.8449
    13 ( vir )            6.9272         -0.3288          2.2505          8.8489
    14 ( vir )            8.5852         -0.3182          2.2771         10.5441
    15 ( vir )            8.6624         -0.3020          2.6035         10.9639
    16 ( vir )            8.6906         -0.3987          2.3226         10.6145
    17 ( vir )           11.0430         -0.6253          3.4719         13.8897
    18 ( vir )           11.0940         -0.6190          3.6760         14.1510
    19 ( vir )           16.1907         -0.9788          4.2642         19.4761
    20 ( vir )           29.7756         -2.2828          5.6180         33.1109
    21 ( vir )           34.9241         -1.8587          5.0374         38.1028
    22 ( vir )           34.9961         -1.9597          5.1979         38.2343
    23 ( vir )           35.4883         -2.0881          5.2182         38.6184
    24 ( vir )           35.5478         -2.1248          5.7948         39.2179
    25 ( vir )           35.9377         -2.1147          5.7619         39.5848
    26 ( vir )           40.2852         -3.0678          6.7541         43.9716
    27 ( vir )           40.7786         -2.9696          7.5961         45.4051
    28 ( vir )           50.2573         -2.9445          7.6829         54.9957
   
  G0W0 HOMO-LUMO gap (eV)                                                 7.9712
  
  ------------------------------------------------------------------------------
  
 *******************************************************************************
 **                                                                           **
 **           Bethe Salpeter equation (BSE) for excitation energies           **
 **               solved without Tamm-Dancoff approximation (TDA)             **
 **                                                                           **
 *******************************************************************************
  
 BSE| No cutoff given for occupied orbitals
 BSE| No cutoff given for empty orbitals
 BSE| First occupied index                                                     1
 BSE| Last empty index (not MO index!)                                        22
 BSE| Energy of first occupied index [eV]                               -557.148
 BSE| Energy of last empty index [eV]                                     54.996
 BSE| Energy difference of first occupied index to HOMO [eV]             548.597
 BSE| Energy difference of last empty index to LUMO [eV]                  54.666
 BSE| Number of GW-corrected occupied MOs                                      6
 BSE| Number of GW-corrected empty MOs                                        22
 BSE|
 BSE| No truncation of BSE matrices applied
 BSE|
 BSE| Total peak memory estimate from BSE [GB]                         1.298E-03
 BSE| Peak memory estimate per MPI rank from BSE [GB]                      0.000
 BSE|
 BSE| Diagonalizing aux. matrix with size of A. This will take around 0.E+00 s.
 BSE| Diagonalizing C. This will take around 0.E+00 s.
 BSE|
 BSE|
 BSE| **************************************************************************
 BSE| *      Full ("ABBA") Bethe Salpeter equation (BSE) (i.e. without TDA)    *
 BSE| **************************************************************************
 BSE|
 BSE| The excitations are calculated by diagonalizing the BSE without the TDA:
 BSE|
 BSE|                |A B| |X^n|       |1  0| |X^n|
 BSE|                |B A| |Y^n| = Ω^n |0 -1| |Y^n|
 BSE|
 BSE| i.e. in index notation:
 BSE|
 BSE|   sum_jb ( A_ia,jb   X_jb^n + B_ia,jb   Y_jb^n ) = Ω^n X_ia^n
 BSE| - sum_jb ( B_ia,jb   X_jb^n + A_ia,jb   Y_jb^n ) = Ω^n Y_ia^n
 BSE|
 BSE|
 BSE| i,j:       occupied molecular orbitals, i.e. state in          [   1,   6]
 BSE| a,b:       unoccupied molecular orbitals, i.e. state in        [   7,  28]
 BSE| n:         Excitation index
 BSE|
 BSE| A_ia,jb = (ε_a-ε_i) δ_ij δ_ab + α * v_ia,jb - W_ij,ab
 BSE| B_ia,jb = α * v_ia,jb - W_ib,aj
 BSE|
 BSE| prelim Ref.: Eqs. (24-27),(30),(35)
 BSE| in PRB 92,045209 (2015); http://dx.doi.org/10.1103/PhysRevB.92.045209 .
 BSE|
 BSE| The BSE is solved for Ω^n and X_ia^n as a hermitian problem, e.g. Eq.(42)
 BSE| in PRB 92,045209 (2015); http://dx.doi.org/10.1103/PhysRevB.92.045209 .
 BSE|
 BSE| ε_...:                 GW quasiparticle energy
 BSE| δ_...:                 Kronecker delta
 BSE| α:                     spin-dependent factor
 BSE| v_...:                 Electron-hole exchange interaction
 BSE| W_... = 1/ϵ v_...:     Direct interaction screened by 
 BSE|                        dielectric function ϵ(ω=0)
 BSE|
 BSE|
 BSE| The spin-dependent factor is for the requested Singlet is α = 2.0
 BSE|
 BSE| Excitation energies from solving the BSE without the TDA:
 BSE|
 BSE|     Excitation n   Spin Config       TDA/ABBA   Excitation energy Ω^n (eV)
 BSE|                1       Singlet         -ABBA-                       2.7934
 BSE|                2       Singlet         -ABBA-                       3.1244
 BSE|                3       Singlet         -ABBA-                       3.7244
 BSE|                4       Singlet         -ABBA-                       5.1129
 BSE|                5       Singlet         -ABBA-                       5.5216
 BSE|                6       Singlet         -ABBA-                       5.5284
 BSE|                7       Singlet         -ABBA-                       5.5514
 BSE|                8       Singlet         -ABBA-                       6.0689
 BSE|                9       Singlet         -ABBA-                       6.4740
 BSE|               10       Singlet         -ABBA-                       6.8393
 BSE|               11       Singlet         -ABBA-                       7.3678
 BSE|               12       Singlet         -ABBA-                       7.4032
 BSE|               13       Singlet         -ABBA-                       9.2458
 BSE|               14       Singlet         -ABBA-                       9.9092
 BSE|               15       Singlet         -ABBA-                      10.1610
 BSE|               16       Singlet         -ABBA-                      10.5433
 BSE|               17       Singlet         -ABBA-                      10.5483
 BSE|               18       Singlet         -ABBA-                      10.8946
 BSE|               19       Singlet         -ABBA-                      10.8991
 BSE|               20       Singlet         -ABBA-                      11.5645
 BSE|               21       Singlet         -ABBA-                      11.5692
 BSE|               22       Singlet         -ABBA-                      12.0879
 BSE|               23       Singlet         -ABBA-                      12.4897
 BSE|               24       Singlet         -ABBA-                      12.5684
 BSE|               25       Singlet         -ABBA-                      12.6864
 BSE|
 BSE| Single-particle transitions are built up by (de-)excitations,
 BSE| which we denote by
 BSE|
 BSE|              =>        for excitations, i.e. entries of X_ia^n,
 BSE|              <=        for deexcitations, i.e. entries of Y_ia^n.
 BSE|
 BSE| The following single-particle transitions have significant contributions,
 BSE| i.e. |X_ia^n| > 0.100 or |Y_ia^n| > 0.100, respectively :
 BSE|         -- Quick reminder: HOMO i =    6 and LUMO a =    7 --
 BSE|
 BSE| Excitation n           i =>/<=     a      TDA/ABBA       |X_ia^n|/|Y_ia^n|
 BSE|
 BSE|            1           5    =>     7        -ABBA-                  0.6904
 BSE|            1           5    =>    11        -ABBA-                  0.1492
 BSE|
 BSE|            2           4    =>     7        -ABBA-                  0.6884
 BSE|            2           4    =>    11        -ABBA-                  0.1552
 BSE|
 BSE|            3           6    =>     7        -ABBA-                  0.6905
 BSE|            3           6    =>    11        -ABBA-                  0.1473
 BSE|
 BSE|            4           5    =>     9        -ABBA-                  0.6964
 BSE|
 BSE|            5           5    =>     8        -ABBA-                  0.6103
 BSE|            5           6    =>     9        -ABBA-                  0.3421
 BSE|
 BSE|            6           4    =>     9        -ABBA-                  0.6971
 BSE|            6           4    =>    17        -ABBA-                  0.1002
 BSE|
 BSE|            7           4    =>     8        -ABBA-                  0.6968
 BSE|
 BSE|            8           6    =>     8        -ABBA-                  0.6971
 BSE|
 BSE|            9           5    =>    10        -ABBA-                  0.7020
 BSE|
 BSE|           10           4    =>    10        -ABBA-                  0.6961
 BSE|
 BSE|           11           4    =>    11        -ABBA-                  0.1347
 BSE|           11           5    =>     8        -ABBA-                  0.3357
 BSE|           11           6    =>     9        -ABBA-                  0.5943
 BSE|
 BSE|           12           6    =>    10        -ABBA-                  0.7027
 BSE|
 BSE|           13           5    =>     7        -ABBA-                  0.1504
 BSE|           13           5    =>    11        -ABBA-                  0.6868
 BSE|
 BSE|           14           4    =>     7        -ABBA-                  0.1503
 BSE|           14           4    =>    11        -ABBA-                  0.6642
 BSE|           14           5    =>    15        -ABBA-                  0.1012
 BSE|           14           6    =>     9        -ABBA-                  0.1071
 BSE|
 BSE|           15           5    =>    12        -ABBA-                  0.1393
 BSE|           15           6    =>     7        -ABBA-                  0.1476
 BSE|           15           6    =>    11        -ABBA-                  0.6746
 BSE|
 BSE|           16           5    =>    13        -ABBA-                  0.6881
 BSE|           16           6    =>    12        -ABBA-                  0.1568
 BSE|
 BSE|           17           5    =>    12        -ABBA-                  0.6754
 BSE|           17           6    =>    11        -ABBA-                  0.1290
 BSE|           17           6    =>    13        -ABBA-                  0.1624
 BSE|
 BSE|           18           4    =>    12        -ABBA-                  0.7064
 BSE|
 BSE|           19           4    =>    13        -ABBA-                  0.7063
 BSE|
 BSE|           20           5    =>    13        -ABBA-                  0.1536
 BSE|           20           6    =>    12        -ABBA-                  0.6878
 BSE|
 BSE|           21           5    =>    12        -ABBA-                  0.1524
 BSE|           21           6    =>    13        -ABBA-                  0.6862
 BSE|
 BSE|           22           5    =>    14        -ABBA-                  0.7039
 BSE|
 BSE|           23           4    =>    14        -ABBA-                  0.7030
 BSE|
 BSE|           24           5    =>    16        -ABBA-                  0.7022
 BSE|
 BSE|           25           4    =>    16        -ABBA-                  0.1820
 BSE|           25           5    =>    15        -ABBA-                  0.5795
 BSE|           25           6    =>    14        -ABBA-                  0.3547
 BSE|
 BSE| Transition moments d_r^n (with r∈(x,y,z), in atomic units)
 BSE| and oscillator strength f^n of excitation level n are obtained from
 BSE|
 BSE|    d_r^n = sum_ia sqrt(2) < ψ_i | r | ψ_a > ( X_ia^n + Y_ia^n )
 BSE|
 BSE|        f^n = 2/3 * Ω^n sum_r∈(x,y,z) ( d_r^n )^2
 BSE|
 BSE| where we introduced
 BSE|
 BSE| ψ_i:   occupied molecular orbitals,
 BSE| ψ_a:   empty molecular orbitals and
 BSE|   r:   position operator.
 BSE|
 BSE| prelim Ref.: Eqs. (23), (24)
 BSE| in J. Chem. Phys. 152, 044105 (2020); https://doi.org/10.1063/1.5123290
 BSE|
 BSE| Optical properties from solving the BSE without the TDA:
 BSE|
 BSE|  Excitation n  TDA/ABBA        d_x^n     d_y^n     d_z^n Osc. strength f^n
 BSE|             1    -ABBA-        0.493     0.493     0.000             0.033
 BSE|             2    -ABBA-        0.000     0.000     0.134             0.001
 BSE|             3    -ABBA-       -0.525     0.525     0.000             0.050
 BSE|             4    -ABBA-        0.000    -0.000    -0.000             0.000
 BSE|             5    -ABBA-       -0.000     0.000     0.187             0.005
 BSE|             6    -ABBA-        0.163    -0.163     0.000             0.007
 BSE|             7    -ABBA-        0.146     0.146     0.000             0.006
 BSE|             8    -ABBA-        0.000    -0.000    -0.000             0.000
 BSE|             9    -ABBA-        0.577     0.577     0.000             0.106
 BSE|            10    -ABBA-       -0.000    -0.000     0.076             0.001
 BSE|            11    -ABBA-        0.000    -0.000     0.771             0.107
 BSE|            12    -ABBA-       -0.598     0.598     0.000             0.130
 BSE|            13    -ABBA-       -0.072    -0.072     0.000             0.002
 BSE|            14    -ABBA-       -0.000    -0.000     0.530             0.068
 BSE|            15    -ABBA-       -0.002     0.002     0.000             0.000
 BSE|            16    -ABBA-        0.404     0.404     0.000             0.084
 BSE|            17    -ABBA-        0.409    -0.409    -0.000             0.087
 BSE|            18    -ABBA-       -0.000    -0.000     0.000             0.000
 BSE|            19    -ABBA-       -0.000     0.000     0.012             0.000
 BSE|            20    -ABBA-       -0.662    -0.662    -0.000             0.248
 BSE|            21    -ABBA-        0.665    -0.665     0.000             0.251
 BSE|            22    -ABBA-        0.000    -0.000     0.000             0.000
 BSE|            23    -ABBA-       -0.099     0.099    -0.000             0.006
 BSE|            24    -ABBA-       -0.104    -0.104     0.000             0.007
 BSE|            25    -ABBA-       -0.000    -0.000    -0.026             0.000
 BSE|
 BSE| Check for Thomas-Reiche-Kuhn sum rule
 BSE|
 BSE|                              N_e = Σ_n f^n
 BSE|
 BSE| Number of electrons N_e:                                                12
 BSE| Sum over oscillator strengths Σ_n f^n :                              7.237
 BSE|
 BSE|
 BSE|
 BSE| The BSE was successfully calculated. Have a nice day!

  Total RI-RPA Time=                                                    0.423012


 ENERGY| Total FORCE_EVAL ( QS ) energy [hartree]            -81.560610109424232

 -------------------------------------------------------------------------------
 -                                                                             -
 -                                DBCSR STATISTICS                             -
 -                                                                             -
 -------------------------------------------------------------------------------
 COUNTER                                    TOTAL       BLAS       SMM       ACC
 flops    14 x    14 x    14                87808     100.0%      0.0%      0.0%     
 flops     6 x     6 x    14               104832     100.0%      0.0%      0.0%     
 flops     6 x    22 x    14               384384     100.0%      0.0%      0.0%     
 flops    14 x     6 x    14               978432     100.0%      0.0%      0.0%     
 flops    22 x    22 x    14              1409408     100.0%      0.0%      0.0%     
 flops    14 x    22 x    14              1793792     100.0%      0.0%      0.0%     
 flops    28 x    28 x    14              2283008     100.0%      0.0%      0.0%     
 flops    14 x    14 x    28              2304960     100.0%      0.0%      0.0%     
 flops    14 x    28 x    14              2414720     100.0%      0.0%      0.0%     
 flops inhomo. stacks                           0       0.0%      0.0%      0.0%
 flops total                        11.761344E+06     100.0%      0.0%      0.0%
 flops max/rank                      1.758176E+06     100.0%      0.0%      0.0%
 matmuls inhomo. stacks                         0       0.0%      0.0%      0.0%
 matmuls total                               1486     100.0%      0.0%      0.0%
 number of processed stacks                   862     100.0%      0.0%      0.0%
 average stack size                                     1.7       0.0       0.0
 marketing flops                    10.114944E+06
 -------------------------------------------------------------------------------
 # multiplications                             83
 max memory usage/rank               2.212196E+09
 # max total images/rank                        3
 # max 3D layers                                1
 # MPI messages exchanged                   72000
 MPI messages size (bytes):
  total size                         6.585600E+06
  min size                           0.000000E+00
  max size                           6.272000E+03
  average size                      91.466667E+00
 MPI breakdown and total messages size (bytes):
             size <=      128               70658                        0
       128 < size <=     8192                1342                  6585600
      8192 < size <=    32768                   0                        0
     32768 < size <=   131072                   0                        0
    131072 < size <=  4194304                   0                        0
   4194304 < size <= 16777216                   0                        0
  16777216 < size                               0                        0
 -------------------------------------------------------------------------------

 *** WARNING in dbcsr_mm.F:301 :: Using a non-square number of MPI ranks ***
 *** might lead to poor performance. Used ranks: 48 Suggested: 49 100    ***

 -------------------------------------------------------------------------------
 -                                                                             -
 -                      DBCSR MESSAGE PASSING PERFORMANCE                      -
 -                                                                             -
 -------------------------------------------------------------------------------
 ROUTINE             CALLS      AVE VOLUME [Bytes]
 MP_Bcast               10                     12.
 MP_Allreduce          507                      9.
 MP_Alltoall          2204                   6338.
 MP_ISend             3474                    332.
 MP_IRecv             3334                     71.
 -------------------------------------------------------------------------------

 -------------------------------------------------------------------------------
 -                                                                             -
 -                                DBM STATISTICS                               -
 -                                                                             -
 -------------------------------------------------------------------------------
    M  x    N  x    K                                          COUNT     PERCENT
    ?  x    ?  x    ?                                         281088      60.40%
   ??  x    ?  x    ?                                         184320      39.60%
 -------------------------------------------------------------------------------

 -------------------------------------------------------------------------------
 -                                                                             -
 -                                GRID STATISTICS                              -
 -                                                                             -
 -------------------------------------------------------------------------------
 LP    KERNEL             BACKEND                              COUNT     PERCENT
 2     collocate general  CPU                                   6816      24.70%
 2     integrate general  CPU                                   6816      24.70%
 4     collocate ortho    CPU                                   3479      12.61%
 4     integrate ortho    CPU                                   3479      12.61%
 2     collocate ortho    CPU                                   2769      10.03%
 2     integrate ortho    CPU                                   2769      10.03%
 0     collocate ortho    CPU                                    639       2.32%
 0     integrate ortho    CPU                                    639       2.32%
 0     collocate general  CPU                                     96       0.35%
 0     integrate general  CPU                                     96       0.35%
 -------------------------------------------------------------------------------

 MEMORY| Estimated peak process memory [MiB]                                2243

 -------------------------------------------------------------------------------
 ----                             MULTIGRID INFO                            ----
 -------------------------------------------------------------------------------
 count for grid        1:         379374          cutoff [a.u.]          250.00
 count for grid        2:         159593          cutoff [a.u.]           83.33
 count for grid        3:         121750          cutoff [a.u.]           27.78
 count for grid        4:          23044          cutoff [a.u.]            9.26
 total gridlevel count  :         683761

 -------------------------------------------------------------------------------
 -                                                                             -
 -                         MESSAGE PASSING PERFORMANCE                         -
 -                                                                             -
 -------------------------------------------------------------------------------

 ROUTINE             CALLS      AVE VOLUME [Bytes]
 MP_Group              288
 MP_Bcast              713                 629213.
 MP_Allreduce         8308                   2242.
 MP_Sync               791
 MP_Alltoall          1961               53873334.
 MP_SendRecv          6777                 265802.
 MP_ISendRecv        13442                 135592.
 MP_Wait             24680
 MP_comm_split         124
 MP_ISend            10208                1644037.
 MP_IRecv            10166                1650829.
 -------------------------------------------------------------------------------


 -------------------------------------------------------------------------------
 -                                                                             -
 -                           R E F E R E N C E S                               -
 -                                                                             -
 -------------------------------------------------------------------------------
 
 CP2K version 2025.1 (Development Version), the CP2K developers group (2025).
 CP2K is freely available from https://www.cp2k.org/ .
 
 T. D. Kuehne, M. Iannuzzi, M. Del Ben, V. V. Rybkin, P. Seewald, F. Stein, T. 
 Laino, R. Z. Khaliullin, O. Schuett, F. Schiffmann, D. Golze, J. Wilhelm, S. 
 Chulkov, M. H. Bani-Hashemian, V. Weber, U. Borstnik, M. Taillefumier, A. S. 
 Jakobovits, A. Lazzaro, H. Pabst, T. Mueller, R. Schade, M. Guidon, S. 
 Andermatt, N. Holmberg, G. K. Schenter, A. Hehn, A. Bussy, F. Belleflamme, G. 
 Tabacchi, A. Gloess, M. Lass, I. Bethune, C. J. Mundy, C. Plessl, M. Watkins, 
 J. VandeVondele, M. Krack, J. Hutter.
 J. Chem. Phys. 152, 194103 (2020).
 CP2K: An electronic structure and molecular dynamics software package - 
 Quickstep: Efficient and accurate electronic structure calculations.
 https://doi.org/10.1063/5.0007045

 J. Wilhelm, D. Golze, L. Talirz, J. Hutter, C. A. Pignedoli.
 J. Phys. Chem. Lett. 9, 306-312 (2018).
 Toward GW calculations on thousands of atoms.
 https://doi.org/10.1021/acs.jpclett.7b02740

 J. Wilhelm, J. Hutter.
 Phys. Rev. B 95, 235123 (2017).
 Periodic GW calculations in the Gaussian and plane-waves scheme.
 https://doi.org/10.1103/PhysRevB.95.235123

 O. Schuett, P. Messmer, J. Hutter, J. VandeVondele.
 Electronic Structure Calculations on Graphics Processing Units, 173-190 (2016).
 GPU-Accelerated Sparse Matrix-Matrix Multiplication for Linear Scaling Density 
 Functional Theory.
 https://doi.org/10.1002/9781118670712.ch8

 J. Wilhelm, M. Del Ben, J. Hutter.
 J. Chem. Theory Comput. 12, 3623-3635 (2016).
 GW in the Gaussian and plane waves scheme with application to linear acenes.
 https://doi.org/10.1021/acs.jctc.6b00380

 M. Del Ben, O. Schuett, T. Wentz, P. Messmer, J. Hutter, J. VandeVondele.
 Comput. Phys. Commun. 187, 120-129 (2015).
 Enabling simulation at the fifth rung of DFT: Large scale RPA calculations with 
 excellent time to solution.
 https://doi.org/10.1016/j.cpc.2014.10.021

 J. Hutter, M. Iannuzzi, F. Schiffmann, J. VandeVondele.
 WIREs Comput Mol Sci. 4, 15-25 (2014).
 CP2K: atomistic simulations of condensed matter systems.
 https://doi.org/10.1002/wcms.1159

 U. Borstnik, J. VandeVondele, V. Weber, J. Hutter.
 Parallel Comput. 40, 47-58 (2014).
 Sparse matrix multiplication: The distributed block-compressed sparse row 
 library.
 https://doi.org/10.1016/j.parco.2014.03.012

 M. Del Ben, J. Hutter, J. VandeVondele.
 J. Chem. Theory Comput. 9, 2654-2671 (2013).
 Electron Correlation in the Condensed Phase from a Resolution of Identity 
 Approach Based on the Gaussian and Plane Waves Scheme.
 https://doi.org/10.1021/ct4002202

 M. Del Ben, J. Hutter, J. VandeVondele.
 J. Chem. Theory Comput. 8, 4177-4188 (2012).
 Second-Order Moller-Plesset Perturbation Theory in the Condensed Phase: An 
 Efficient and Massively Parallel Gaussian and Plane Waves Approach.
 https://doi.org/10.1021/ct300531w

 M. Guidon, J. Hutter, J. VandeVondele.
 J. Chem. Theory Comput. 5, 3010-3021 (2009).
 Robust Periodic Hartree-Fock Exchange for Large-Scale Simulations Using 
 Gaussian Basis Sets.
 https://doi.org/10.1021/ct900494g

 M. Guidon, F. Schiffmann, J. Hutter, J. VandeVondele.
 J. Chem. Phys. 128, 214104 (2008).
 Ab initio molecular dynamics using hybrid density functionals.
 https://doi.org/10.1063/1.2931945

 L. Genovese, T. Deutsch, S. Goedecker.
 J. Chem. Phys. 127, 054704 (2007).
 Efficient and accurate three-dimensional Poisson solver for surface problems.
 https://doi.org/10.1063/1.2754685

 J. VandeVondele, J. Hutter.
 J. Chem. Phys. 127, 114105 (2007).
 Gaussian basis sets for accurate calculations on molecular systems in gas and 
 condensed phases.
 https://doi.org/10.1063/1.2770708

 L. Genovese, T. Deutsch, A. Neelov, S. Goedecker, G. Beylkin.
 J. Chem. Phys. 125, 074105 (2006).
 Efficient solution of Poisson's equation with free boundary conditions.
 https://doi.org/10.1063/1.2335442

 M. Frigo, S. G. Johnson.
 Proc. IEEE 93, 216-231 (2005).
 The design and implementation of FFTW3.
 https://doi.org/10.1109/JPROC.2004.840301

 M. Krack, M. Parrinello.
 Phys. Chem. Chem. Phys. 2, 2105-2112 (2000).
 All-electron ab-initio molecular dynamics.
 https://doi.org/10.1039/b001167n

 G. Lippert, J. Hutter, M. Parrinello.
 Theor. Chem. Acc. 103, 124-140 (1999).
 The Gaussian and augmented-plane-wave density functional method for ab initio 
 molecular dynamics simulations.
 https://doi.org/10.1007/s002140050523

 J. P. Perdew, K. Burke, M. Ernzerhof.
 Phys. Rev. Lett. 77, 3865-3868 (1996).
 Generalized gradient approximation made simple.
 https://doi.org/10.1103/PhysRevLett.77.3865


 -------------------------------------------------------------------------------
 -                                                                             -
 -                                T I M I N G                                  -
 -                                                                             -
 -------------------------------------------------------------------------------
 SUBROUTINE                       CALLS  ASD         SELF TIME        TOTAL TIME
                                MAXIMUM       AVERAGE  MAXIMUM  AVERAGE  MAXIMUM
 CP2K                                 1  1.0    0.042    0.071  207.949  207.950
 qs_energies                          1  2.0    0.001    0.001  207.079  207.303
 scf_env_do_scf                       1  3.0    0.000    0.000  204.297  204.298
 scf_env_do_scf_inner_loop           70  4.0    0.002    0.005  204.297  204.298
 qs_ks_build_kohn_sham_matrix        71  7.0    0.011    0.012  154.678  154.688
 qs_ks_update_qs_env                 70  5.0    0.000    0.001  153.294  153.304
 rebuild_ks_matrix                   70  6.0    0.000    0.000  153.289  153.298
 fft_wrap_pw1pw2                   1482  9.9    0.033    0.043   83.946   85.019
 fft_wrap_pw1pw2_250               1056 11.1    3.640    4.032   81.273   82.377
 fft3d_ps                          1482 11.9   33.313   36.683   67.542   68.536
 pw_poisson_solve                    71  8.0    1.264    1.383   61.726   61.752
 qs_vxc_create                       71  8.0    0.001    0.001   50.233   50.233
 xc_vxc_pw_create                    70  9.0    0.876    0.971   50.232   50.232
 ps_wavelet_solve                    71  9.0   31.979   36.124   41.054   41.327
 xc_pw_derive                       420 11.0    0.004    0.005   36.588   37.497
 mp_alltoall_d54                     71 10.0    6.013   32.037    6.013   32.037
 mp_alltoall_z22v                  1482 13.9   26.188   29.311   26.188   29.311
 qs_rho_update_rho_low               71  5.0    0.001    0.001   26.396   26.396
 calculate_rho_elec                  71  6.0    0.694    0.740   26.314   26.314
 xc_pw_divergence                    70 10.0    0.002    0.003   24.820   25.719
 xc_rho_set_and_dset_create          70 10.0    0.632    0.784   24.073   25.062
 gspace_mixing                       69  5.0    0.674    0.718   24.491   24.491
 x_to_yz                            775 13.1    5.649    6.095   18.124   18.833
 density_rs2pw                       71  7.0    0.005    0.006   18.494   18.725
 yz_to_x                            707 12.8    2.368    2.831   16.081   18.653
 broyden_mixing                      69  6.0   18.167   18.449   18.478   18.570
 sum_up_and_integrate                71  8.0    0.001    0.001   14.462   14.494
 integrate_v_rspace                  71  9.0    0.002    0.002   14.249   14.347
 potential_pw2rs                     71 10.0    0.036    0.040   13.804   13.894
 prepare_gapw_den                    71  8.0    0.001    0.001   10.774   10.978
 transfer_pw2rs                     356 10.6    0.005    0.007   10.143   10.322
 put_rho0_on_grid                    71  9.0    0.698    0.751   10.093   10.296
 transfer_rs2pw                     356  8.4    0.010    0.014    8.915    9.101
 mp_waitany                        9416 11.5    7.806    8.607    7.806    8.607
 grid_collocate_task_list            71  7.0    6.828    7.139    6.828    7.139
 transfer_pw2rs_250                 143 11.0    2.130    2.359    6.654    6.975
 transfer_rs2pw_250                 143 10.0    2.360    2.516    6.202    6.445
 mp_alltoall_d11v                  1256  9.4    3.162    6.309    3.162    6.309
 xc_functional_eval                 350 10.9    0.001    0.002    5.166    5.986
 pbe_lda_eval                       350 11.9    5.165    5.985    5.165    5.985
 pw_scatter_p                       775 12.1    5.545    5.686    5.545    5.686
 mp_alltoall_d45                     72 10.0    2.825    5.616    2.825    5.616
 pw_gather_p                        707 11.8    4.657    5.361    4.657    5.361
 hfx_ks_matrix                       71  8.0    0.003    0.003    5.240    5.321
 integrate_four_center               71  9.0    1.513    3.213    5.237    5.316
 pw_derive                          633 11.3    4.081    4.338    4.081    4.338
 integrate_vhg0_rspace               71  8.0    0.024    0.034    4.302    4.324
 mp_sum_d                          1646  6.2    3.107    4.118    3.107    4.118
 mp_sync                            791  9.5    2.422    3.924    2.422    3.924
 cp2k_distribution_to_z_slices       71  9.0    1.320    1.391    2.503    2.675
 pw_copy                           1060 10.6    2.420    2.595    2.420    2.595
 fft_wrap_pw1pw2_90                 142 10.5    0.102    0.133    2.134    2.447
 pw_poisson_set                      72  8.9    0.002    0.003    2.250    2.276
 mp2_main                             1  3.0    0.000    0.000    1.993    2.216
 mp_waitall_1                     21562 12.0    1.027    1.985    1.027    1.985
 rs_grid_zero                       357 11.2    1.899    1.970    1.899    1.970
 transfer_pw2rs_90                   71 12.0    0.377    0.437    1.493    1.933
 calculate_vxc_atom                  71  8.0    0.024    0.211    1.732    1.733
 pw_axpy                            705  9.3    1.581    1.725    1.581    1.725
 transfer_pw2rs_30                   71 12.0    0.965    1.039    1.481    1.622
 pw_copy_to_array                   707 11.8    1.459    1.605    1.459    1.605
 gaVxcgb_GC                         140  9.0    0.030    1.432    0.030    1.432
 compute_vec_Sigma_x_minus_vxc_       1  4.0    0.000    0.000    1.394    1.394
 transfer_rs2pw_90                   71  9.0    0.341    0.382    1.219    1.277
 pw_integral_ab_c1d_c1d_gs           71  9.0    1.043    1.050    1.136    1.245
 pw_copy_from_array                 775 12.1    0.947    1.164    0.947    1.164
 transfer_rs2pw_30                   71  9.0    0.556    0.581    1.132    1.153
 pw_poisson_rebuild                  71  9.0    0.000    0.000    1.106    1.130
 ps_wavelet_create                    1 10.0    0.000    0.000    1.105    1.130
 RS_z_slice_distribution              1 11.0    0.988    1.037    1.105    1.130
 mp_sum_dm                          501  7.6    0.544    1.088    0.544    1.088
 calc_screening_functions             1 10.0    0.775    0.784    0.961    0.976
 integrate_four_center_main          71 10.0    0.026    0.474    0.038    0.945
 mp_sendrecv_dv                    6674 10.0    0.811    0.846    0.811    0.846
 mp_isend_dv                       8839 11.7    0.485    0.825    0.485    0.825
 pw_zero                            422 10.3    0.679    0.750    0.679    0.750
 mp_isend_dm3                      2568 11.5    0.344    0.714    0.344    0.714
 calculate_rho_atom                 142  9.0    0.167    0.659    0.167    0.659
 mp_sum_dv                         3232 11.9    0.566    0.621    0.566    0.621
 init_scf_run                         1  3.0    0.000    0.000    0.611    0.611
 scf_env_initial_rho_setup            1  4.0    0.000    0.000    0.605    0.605
 mp_irecv_dm3                      2568 11.5    0.344    0.602    0.344    0.602
 qs_scf_new_mos                      70  5.0    0.001    0.001    0.549    0.590
 transfer_pw2rs_10                   71 12.0    0.242    0.261    0.510    0.552
 integrate_four_center_bin         5787 11.0    0.011    0.471    0.011    0.471
 mp_isendrecv_dv                  13348 12.0    0.224    0.453    0.224    0.453
 rs_gather_matrices                  71 10.0    0.001    0.003    0.398    0.448
 grid_integrate_task_list            71 10.0    0.044    0.437    0.044    0.437
 qs_init_subsys                       1  2.0    0.003    0.004    0.433    0.434
 fft_wrap_pw1pw2_30                 142 10.5    0.017    0.020    0.407    0.429
 qs_env_setup                         1  3.0    0.000    0.000    0.426    0.426
 qs_env_rebuild_pw_env                2  3.5    0.000    0.000    0.425    0.426
 pw_env_rebuild                       1  5.0    0.001    0.001    0.424    0.425
 mp2_gpw_main                         1  4.0    0.000    0.000    0.413    0.423
 pw_grid_setup                        4  6.0    0.000    0.000    0.415    0.415
 pw_grid_setup_internal               4  7.0    0.010    0.013    0.415    0.415
 Vh_1c_gg_integrals                  71  8.0    0.007    0.122    0.266    0.411
 mp_sum_i                            19  9.5    0.224    0.391    0.224    0.391
 mp2_main_alloc_hfx                   1  4.0    0.166    0.390    0.166    0.390
 restraint_control                    1  2.0    0.000    0.000    0.224    0.390
 scale_and_distribute               142 10.0    0.354    0.378    0.354    0.378
 transfer_rs2pw_10                   71  9.0    0.116    0.125    0.352    0.360
 mp_max_i                           541  3.0    0.223    0.351    0.223    0.351
 powell_optimize                 128478 11.0    0.320    0.334    0.320    0.334
 pw_grid_sort                         4  8.0    0.223    0.227    0.318    0.322
 rpa_ri_compute_en                    1  5.0    0.000    0.000    0.300    0.300
 rpa_num_int                          1  6.0    0.001    0.001    0.297    0.298
 cp_fm_syevd                         76  7.0    0.000    0.001    0.287    0.288
 eigensolver_symm                    71  6.0    0.003    0.003    0.283    0.284
 calc_pair_dist_radii                 1 10.0    0.117    0.118    0.250    0.256
 cp_fm_redistribute_end              76  8.0    0.133    0.235    0.137    0.238
 pw_scale                           281  9.5    0.184    0.229    0.184    0.229
 cp_fm_syevd_base                    76  8.0    0.099    0.200    0.099    0.200
 calculate_dm_sparse                 70  6.0    0.000    0.001    0.163    0.165
 cp_dbcsr_plus_fm_fm_t               70  7.0    0.001    0.001    0.163    0.164
 copy_dbcsr_to_fm                    89  6.3    0.002    0.002    0.111    0.150
 mixing_init                          1  5.0    0.146    0.148    0.149    0.150
 compute_GW_self_energy             100  7.0    0.001    0.001    0.122    0.125
 dbcsr_multiply_generic              91  8.1    0.004    0.004    0.115    0.119
 fft_wrap_pw1pw2_10                 142 10.5    0.004    0.004    0.099    0.118
 rpa_num_int_RPA_matrix_operati     100  7.0    0.001    0.002    0.115    0.115
 scf_post_calculation_gpw             1  3.0    0.000    0.000    0.113    0.113
 write_available_results              1  4.0    0.000    0.000    0.113    0.113
 write_mo_free_results                1  5.0    0.013    0.014    0.113    0.113
 dbcsr_desymmetrize_deep             91  7.2    0.002    0.002    0.068    0.108
 xc_pw_smooth                        70 10.0    0.000    0.000    0.074    0.104
 create_qs_kind_set                   1  2.0    0.000    0.000    0.103    0.104
 read_qs_kind                         2  3.0    0.043    0.047    0.103    0.104
 parallel_gemm_fm                   360  8.5    0.000    0.001    0.095    0.099
 dbcsr_complete_redistribute        233  8.4    0.009    0.012    0.098    0.099
 parallel_gemm_fm_gemm              360  9.5    0.000    0.001    0.095    0.099
 cp_fm_gemm                         360 10.5    0.094    0.099    0.094    0.099
 sort_shells                          4  9.0    0.095    0.096    0.095    0.096
 mp2_ri_gpw_compute_in                1  5.0    0.000    0.000    0.096    0.096
 mp2_ri_gpw_compute_in_loop           1  6.0    0.000    0.000    0.093    0.093
 contract_B_L                         4  7.0    0.001    0.001    0.086    0.088
 mp_alltoall_i22                    324  9.1    0.046    0.087    0.046    0.087
 calculate_rho_atom_coeff            71  6.0    0.006    0.013    0.081    0.081
 vxc_of_r_new                       280  9.0    0.000    0.012    0.002    0.081
 calc_mat_Q                         100  8.0    0.000    0.000    0.071    0.074
 contract_S_to_Q                    100  9.0    0.000    0.000    0.071    0.073
 compute_GW_self_energy_deep        100  8.0    0.022    0.024    0.070    0.073
 qs_energies_init_hamiltonians        1  3.0    0.000    0.000    0.064    0.064
 dbt_total                            8  8.0    0.000    0.000    0.063    0.063
 parser_read_line                  8195  4.0    0.003    0.003    0.060    0.063
 cp_fm_to_fm_submat_general         112 10.1    0.058    0.061    0.058    0.061
 parser_read_line_low                14  5.0    0.007    0.024    0.057    0.060
 build_core_hamiltonian_matrix        1  4.0    0.000    0.000    0.060    0.060
 update_ks_atom                      71  8.0    0.004    0.008    0.039    0.060
 dbt_contract                         4  9.0    0.001    0.001    0.060    0.060
 overlap_condnum                      1  5.0    0.000    0.000    0.058    0.058
 make_m2s                           182  9.1    0.003    0.003    0.056    0.058
 offload_free_buffer                 79  8.4    0.035    0.057    0.035    0.057
 broadcast_input_information         14  6.0    0.015    0.017    0.050    0.057
 copy_fm_to_dbcsr                   144  8.1    0.001    0.001    0.055    0.057
 mp_bcast_dm                        284  9.0    0.036    0.056    0.036    0.056
 start_bse_calculation                1  7.0    0.000    0.000    0.053    0.054
 pw_grid_assign                       4  8.0    0.050    0.052    0.051    0.053
 cp_fm_redistribute_start            76  8.0    0.041    0.043    0.050    0.053
 hirshfeld_integration                1  6.0    0.001    0.003    0.051    0.051
 mp_sum_l                           893  5.9    0.039    0.049    0.039    0.049
 calculate_hirshfeld_normalizat       1  6.0    0.001    0.004    0.048    0.048
 cp_fm_cholesky_invert              101  8.0    0.045    0.047    0.045    0.047
 dbt_tas_multiply                     8 11.5    0.000    0.000    0.045    0.046
 dbt_tas_total                        8 12.5    0.001    0.002    0.045    0.045
 mp_irecv_dv                       8789 11.7    0.024    0.045    0.024    0.045
 multiply_cannon                     91  9.1    0.007    0.007    0.039    0.040
 compute_Erpa_by_freq_int           100  8.0    0.001    0.001    0.039    0.039
 cp_fm_cholesky_decompose           102  9.0    0.037    0.037    0.037    0.037
 integrate_four_center_getP          71 10.0    0.005    0.006    0.028    0.036
 arnoldi_conjugate_gradient           5  6.0    0.001    0.001    0.035    0.035
 mp_cart_create                     379 10.3    0.031    0.034    0.031    0.034
 diagonalize_C                        1  8.0    0.000    0.000    0.033    0.034
 integrate_four_center_load          71 10.0    0.000    0.001    0.024    0.031
 hfx_load_balance                     1 11.0    0.000    0.000    0.023    0.031
 mp_alltoall_i11v                   790  9.3    0.031    0.031    0.031    0.031
 dbcsr_finalize                    1535 10.8    0.006    0.009    0.021    0.030
 mp_comm_split_direct                48 14.5    0.019    0.029    0.019    0.029
 mp_bcast_i_src                      56  7.0    0.019    0.028    0.019    0.028
 hfx_load_balance_range               1 12.0    0.000    0.000    0.020    0.027
 mp2_main_free_hfx                    1  4.0    0.010    0.025    0.010    0.025
 multiply_cannon_loop                91 10.1    0.006    0.006    0.024    0.025
 make_images                        182 10.1    0.005    0.006    0.023    0.025
 integrate_four_center_dist_KS       71 10.0    0.005    0.006    0.023    0.024
 cp_fm_power                          2  7.5    0.000    0.000    0.023    0.023
 hybrid_alltoall_any                273 10.8    0.002    0.002    0.021    0.022
 postprocess_bse                      1  9.0    0.000    0.000    0.021    0.022
 mp_maxloc_dv                      1515  1.0    0.020    0.021    0.020    0.021
 dbcsr_crop_matrix                  280 10.0    0.002    0.002    0.020    0.021
 -------------------------------------------------------------------------------

 The number of warnings for this run is : 1
 
 -------------------------------------------------------------------------------
  **** **** ******  **  PROGRAM ENDED AT                 2025-03-26 05:56:11.341
 ***** ** ***  *** **   PROGRAM RAN ON                              i05r06c03s12
 **    ****   ******    PROGRAM RAN BY                                   di38fab
 ***** **    ** ** **   PROGRAM PROCESS ID                               3343229
  **** **  *******  **  PROGRAM STOPPED IN /hppfs/scratch/04/di38fab/05_MOL/W4-1
                                           1+ALK/lio/SZVSR/GW+BSE/1e-4
