SIRIUS 7.5.2, git hash: https://api.github.com/repos/electronic-structure/SIRIUS/git/ref/tags/v7.5.2
 DBCSR| CPU Multiplication driver                                           XSMM (U)
 DBCSR| Multrec recursion limit                                              512 (U)
 DBCSR| Multiplication stack size                                           1000 (D)
 DBCSR| Maximum elements for images                                    UNLIMITED (U)
 DBCSR| Multiplicative factor virtual images                                   1 (U)
 DBCSR| Use multiplication densification                                       T (D)
 DBCSR| Multiplication size stacks                                             3 (U)
 DBCSR| Use memory pool for CPU allocation                                     F (U)
 DBCSR| Number of 3D layers                                               SINGLE (U)
 DBCSR| Use MPI memory allocation                                              F (U)
 DBCSR| Use RMA algorithm                                                      F (U)
 DBCSR| Use Communication thread                                               T (U)
 DBCSR| Communication thread load                                             75 (D)
 DBCSR| MPI: My process id                                                     0
 DBCSR| MPI: Number of processes                                             192
 DBCSR| OMP: Current number of threads                                         4
 DBCSR| OMP: Max number of threads                                             4
 DBCSR| Split modifier for TAS multiplication algorithm                  1.0E+00 (U)


  **** **** ******  **  PROGRAM STARTED AT               2025-03-20 08:28:34.182
 ***** ** ***  *** **   PROGRAM STARTED ON                 n2cn0859.ab2021.local
 **    ****   ******    PROGRAM STARTED BY                              metdyn02
 ***** **    ** ** **   PROGRAM PROCESS ID                                154838
  **** **  *******  **  PROGRAM STARTED IN /scratch/hpc-prf-metdyn/metdyn02_Remi
                                           /10_MOL/05_MOL/aUKBqsEOTmq69kFe5R_nOg
                                           /5k_set_final_qzvp/VUZHAA/SZV/GW+BSE/
                                           1e-4

 CP2K| version string:                 CP2K version 2025.1 (Development Version)
 CP2K| source code revision number:                                  git:f0c7327
 CP2K| cp2kflags: omp libint fftw3 libxc libgrpp elpa parallel scalapack mpi_f08
 CP2K|             cosma xsmm plumed2 spglib sirius libvori libbqb libvdwxc hdf5
 CP2K| is freely available from                            https://www.cp2k.org/
 CP2K| Program compiled at                          Wed Mar 12 18:25:30 CET 2025
 CP2K| Program compiled on                                              n2login1
 CP2K| Program compiled for                                                local
 CP2K| Data directory path    /opt/software/pc2/EB-SW/software/CP2K/2024.1-foss-
 CP2K| Input file name                                                    GW.inp

 GLOBAL| Force Environment number                                              1
 GLOBAL| Basis set file name            /scratch/hpc-prf-metdyn/metdyn02_Remi/BA
 GLOBAL| Potential file name            /pc2/groups/hpc-prf-metdyn/metdyn02_Remi
 GLOBAL| MM Potential file name                                     MM_POTENTIAL
 GLOBAL| Coordinate file name                                      __STD_INPUT__
 GLOBAL| Method name                                                        CP2K
 GLOBAL| Project name                                                       MoS2
 GLOBAL| Run type                                                         ENERGY
 GLOBAL| FFT library                                                       FFTW3
 GLOBAL| Diagonalization library                                            ELPA
 GLOBAL| DGEMM library                                                      BLAS
 GLOBAL| Minimum number of eigenvectors for ELPA usage                        16
 GLOBAL| Orthonormality check for eigenvectors                          DISABLED
 GLOBAL| Matrix multiplication library                                     COSMA
 GLOBAL| All-to-all communication in single precision                          F
 GLOBAL| FFTs using library dependent lengths                                  F
 GLOBAL| Grid backend                                                       AUTO
 GLOBAL| Global print level                                               MEDIUM
 GLOBAL| MPI I/O enabled                                                       T
 GLOBAL| Total number of message passing processes                           192
 GLOBAL| Number of threads for this process                                    4
 GLOBAL| This output is from process                                           0
 GLOBAL| OpenMP stack size per thread (OMP_STACKSIZE)                    default
 GLOBAL| CPU model name                          AMD EPYC 7763 64-Core Processor
 GLOBAL| CPUID                                                              1002

 MEMORY| system memory details [Kb]
 MEMORY|                        rank 0           min           max       average
 MEMORY| MemTotal            263899260     263899260     263899264     263899261
 MEMORY| MemFree             243611752     241764260     244308232     242775040
 MEMORY| Buffers                136000         32216        216516        153167
 MEMORY| Cached                6785688       5547884       7869840       6910948
 MEMORY| Slab                  2123732       2036292       2824292       2332594
 MEMORY| SReclaimable           327956        318108        530812        410456
 MEMORY| MemLikelyFree       250861396     249601160     250861396     250249611


 *** Fundamental physical constants (SI units) ***

 *** Literature: B. J. Mohr and B. N. Taylor,
 ***             CODATA recommended values of the fundamental physical
 ***             constants: 2006, Web Version 5.1
 ***             http://physics.nist.gov/constants

 Speed of light in vacuum [m/s]                             2.99792458000000E+08
 Magnetic constant or permeability of vacuum [N/A**2]       1.25663706143592E-06
 Electric constant or permittivity of vacuum [F/m]          8.85418781762039E-12
 Planck constant (h) [J*s]                                  6.62606896000000E-34
 Planck constant (h-bar) [J*s]                              1.05457162825177E-34
 Elementary charge [C]                                      1.60217648700000E-19
 Electron mass [kg]                                         9.10938215000000E-31
 Electron g factor [ ]                                     -2.00231930436220E+00
 Proton mass [kg]                                           1.67262163700000E-27
 Fine-structure constant                                    7.29735253760000E-03
 Rydberg constant [1/m]                                     1.09737315685270E+07
 Avogadro constant [1/mol]                                  6.02214179000000E+23
 Boltzmann constant [J/K]                                   1.38065040000000E-23
 Atomic mass unit [kg]                                      1.66053878200000E-27
 Bohr radius [m]                                            5.29177208590000E-11

 *** Conversion factors ***

 [u] -> [a.u.]                                              1.82288848426455E+03
 [Angstrom] -> [Bohr] = [a.u.]                              1.88972613288564E+00
 [a.u.] = [Bohr] -> [Angstrom]                              5.29177208590000E-01
 [a.u.] -> [s]                                              2.41888432650478E-17
 [a.u.] -> [fs]                                             2.41888432650478E-02
 [a.u.] -> [J]                                              4.35974393937059E-18
 [a.u.] -> [N]                                              8.23872205491840E-08
 [a.u.] -> [K]                                              3.15774647902944E+05
 [a.u.] -> [kJ/mol]                                         2.62549961709828E+03
 [a.u.] -> [kcal/mol]                                       6.27509468713739E+02
 [a.u.] -> [Pa]                                             2.94210107994716E+13
 [a.u.] -> [bar]                                            2.94210107994716E+08
 [a.u.] -> [atm]                                            2.90362800883016E+08
 [a.u.] -> [eV]                                             2.72113838565563E+01
 [a.u.] -> [Hz]                                             6.57968392072181E+15
 [a.u.] -> [1/cm] (wave numbers)                            2.19474631370540E+05
 [a.u./Bohr**2] -> [1/cm]                                   5.14048714338585E+03
 

 CELL_TOP| Volume [angstrom^3]:                                     27000.000000
 CELL_TOP| Vector a [angstrom    30.000     0.000     0.000   |a| =    30.000000
 CELL_TOP| Vector b [angstrom     0.000    30.000     0.000   |b| =    30.000000
 CELL_TOP| Vector c [angstrom     0.000     0.000    30.000   |c| =    30.000000
 CELL_TOP| Angle (b,c), alpha [degree]:                                90.000000
 CELL_TOP| Angle (a,c), beta  [degree]:                                90.000000
 CELL_TOP| Angle (a,b), gamma [degree]:                                90.000000
 CELL_TOP| Numerically orthorhombic:                                         YES
 CELL_TOP| Periodicity                                                      NONE

 GENERATE|  Preliminary Number of Bonds generated:                             0
 GENERATE|  Achieved consistency in connectivity generation.

 CELL| Volume [angstrom^3]:                                         27000.000000
 CELL| Vector a [angstrom]:      30.000     0.000     0.000   |a| =    30.000000
 CELL| Vector b [angstrom]:       0.000    30.000     0.000   |b| =    30.000000
 CELL| Vector c [angstrom]:       0.000     0.000    30.000   |c| =    30.000000
 CELL| Angle (b,c), alpha [degree]:                                    90.000000
 CELL| Angle (a,c), beta  [degree]:                                    90.000000
 CELL| Angle (a,b), gamma [degree]:                                    90.000000
 CELL| Numerically orthorhombic:                                             YES
 CELL| Periodicity                                                          NONE

 CELL_REF| Volume [angstrom^3]:                                     27000.000000
 CELL_REF| Vector a [angstrom    30.000     0.000     0.000   |a| =    30.000000
 CELL_REF| Vector b [angstrom     0.000    30.000     0.000   |b| =    30.000000
 CELL_REF| Vector c [angstrom     0.000     0.000    30.000   |c| =    30.000000
 CELL_REF| Angle (b,c), alpha [degree]:                                90.000000
 CELL_REF| Angle (a,c), beta  [degree]:                                90.000000
 CELL_REF| Angle (a,b), gamma [degree]:                                90.000000
 CELL_REF| Numerically orthorhombic:                                         YES
 CELL_REF| Periodicity                                                      NONE

 *******************************************************************************
 *******************************************************************************
 **                                                                           **
 **     #####                         ##              ##                      **
 **    ##   ##            ##          ##              ##                      **
 **   ##     ##                       ##            ######                    **
 **   ##     ##  ##   ##  ##   #####  ##  ##   ####   ##    #####    #####    **
 **   ##     ##  ##   ##  ##  ##      ## ##   ##      ##   ##   ##  ##   ##   **
 **   ##  ## ##  ##   ##  ##  ##      ####     ###    ##   ######   ######    **
 **    ##  ###   ##   ##  ##  ##      ## ##      ##   ##   ##       ##        **
 **     #######   #####   ##   #####  ##  ##  ####    ##    #####   ##        **
 **           ##                                                    ##        **
 **                                                                           **
 **                                                ... make the atoms dance   **
 **                                                                           **
 **            Copyright (C) by CP2K developers group (2000-2025)             **
 **                      J. Chem. Phys. 152, 194103 (2020)                    **
 **                                                                           **
 *******************************************************************************

 DFT| Spin restricted Kohn-Sham (RKS) calculation                            RKS
 DFT| Multiplicity                                                             1
 DFT| Number of spin states                                                    1
 DFT| Charge                                                                   0
 DFT| Self-interaction correction (SIC)                                       NO
 DFT| Cutoffs: density                                              1.000000E-10
 DFT|          gradient                                             1.000000E-10
 DFT|          tau                                                  1.000000E-10
 DFT|          cutoff_smoothing_range                               0.000000E+00
 DFT| XC density smoothing                                                  NONE
 DFT| XC derivatives                                                          PW

 FUNCTIONAL| PBE:
 FUNCTIONAL| J.P.Perdew, K.Burke, M.Ernzerhof, Phys. Rev. Letter, vol. 77, n 18,
 FUNCTIONAL|  pp. 3865-3868, (1996)sx=0.750sc=1.000{spin unpolarized}           


 QS| Method:                                                                GAPW
 QS| Density plane wave grid type                        NON-SPHERICAL FULLSPACE
 QS| Number of grid levels:                                                    4
 QS| Density cutoff [a.u.]:                                                250.0
 QS| Multi grid cutoff [a.u.]: 1) grid level                               250.0
 QS|                           2) grid level                                83.3
 QS|                           3) grid level                                27.8
 QS|                           4) grid level                                 9.3
 QS| Grid level progression factor:                                          3.0
 QS| Relative density cutoff [a.u.]:                                        50.0
 QS| Interaction thresholds: eps_pgf_orb:                                1.0E-12
 QS|                         eps_filter_matrix:                          0.0E+00
 QS|                         eps_core_charge:                            1.0E-14
 QS|                         eps_rho_gspace:                             1.0E-12
 QS|                         eps_rho_rspace:                             1.0E-12
 QS|                         eps_gvg_rspace:                             1.0E-06
 QS|                         eps_ppl:                                    1.0E-02
 QS|                         eps_ppnl:                                   1.0E-08
 QS| GAPW|      One center basis from orbital basis primitives
 QS| GAPW|                   eps_fit:                                    1.0E-04
 QS| GAPW|                   eps_iso:                                    1.0E-12
 QS| GAPW|                   eps_svd:                                    1.0E-08
 QS| GAPW|                   eps_cpc:                                    1.0E-12
 QS| GAPW|   atom-r-grid: quadrature:                                     GC_LOG
 QS| GAPW|      atom-s-grid:  max l :                                          4
 QS| GAPW|      max_l_rho0 :                                                   2


 ATOMIC KIND INFORMATION

  1. Atomic kind: O                                     Number of atoms:       2

     Orbital Basis Set                                         aug-SZV-MOLOPT-ae

       Number of orbital shell sets:                                           2
       Number of orbital shells:                                               5
       Number of primitive Cartesian functions:                               13
       Number of Cartesian basis functions:                                    9
       Number of spherical basis functions:                                    9
       Norm type:                                                              2

       Normalised Cartesian orbitals:

                        Set   Shell   Orbital            Exponent    Coefficient

                          1       1    1s                0.123000       0.000000
                                                         0.245881       0.059902
                                                         0.536420       0.265853
                                                         1.235135       0.208956
                                                         3.210345      -0.057750
                                                        10.329320      -0.192968
                                                        52.187762      -0.183398

                          1       2    2s                0.123000      -0.253465
                                                         0.245881       0.187097
                                                         0.536420       0.063592
                                                         1.235135       0.074938
                                                         3.210345       0.000000
                                                        10.329320       0.000000
                                                        52.187762       0.000000

                          1       3    2px               0.123000       0.000000
                                                         0.245881       0.025102
                                                         0.536420       0.278668
                                                         1.235135       0.775885
                                                         3.210345       1.065175
                                                        10.329320       0.994565
                                                        52.187762       0.751716
                          1       3    2py               0.123000       0.000000
                                                         0.245881       0.025102
                                                         0.536420       0.278668
                                                         1.235135       0.775885
                                                         3.210345       1.065175
                                                        10.329320       0.994565
                                                        52.187762       0.751716
                          1       3    2pz               0.123000       0.000000
                                                         0.245881       0.025102
                                                         0.536420       0.278668
                                                         1.235135       0.775885
                                                         3.210345       1.065175
                                                        10.329320       0.994565
                                                        52.187762       0.751716

                          1       4    3px               0.123000       0.048536
                                                         0.245881       0.257066
                                                         0.536420      -0.539300
                                                         1.235135      -0.153605
                                                         3.210345       0.000000
                                                        10.329320       0.000000
                                                        52.187762       0.000000
                          1       4    3py               0.123000       0.048536
                                                         0.245881       0.257066
                                                         0.536420      -0.539300
                                                         1.235135      -0.153605
                                                         3.210345       0.000000
                                                        10.329320       0.000000
                                                        52.187762       0.000000
                          1       4    3pz               0.123000       0.048536
                                                         0.245881       0.257066
                                                         0.536420      -0.539300
                                                         1.235135      -0.153605
                                                         3.210345       0.000000
                                                        10.329320       0.000000
                                                        52.187762       0.000000

                          2       1    1s             1355.584234       1.459053
                                                       248.544885       2.202176
                                                        69.533902       2.892385
                                                        23.886772       2.853580
                                                         9.275933       1.577736
                                                         3.820341       0.253831

     RI Auxiliary Basis Set             RI_aug-SZV-MOLOPT-ae_N_RI_039_s_p_d_f_g_

       Number of orbital shell sets:                                          13
       Number of orbital shells:                                              13
       Number of primitive Cartesian functions:                               13
       Number of Cartesian basis functions:                                   45
       Number of spherical basis functions:                                   39
       Norm type:                                                              2

       Normalised Cartesian orbitals:

                        Set   Shell   Orbital            Exponent    Coefficient

                          1       1    6px               0.339985       0.370054
                          1       1    6py               0.339985       0.370054
                          1       1    6pz               0.339985       0.370054

                          2       1    1s                0.360717       0.331730

                          3       1   10dx2              0.387676       0.313495
                          3       1   10dxy              0.387676       0.542989
                          3       1   10dxz              0.387676       0.542989
                          3       1   10dy2              0.387676       0.313495
                          3       1   10dyz              0.387676       0.542989
                          3       1   10dz2              0.387676       0.313495

                          4       1    2s                1.025597       0.726344

                          5       1   11dx2              1.429532       3.076087
                          5       1   11dxy              1.429532       5.327939
                          5       1   11dxz              1.429532       5.327939
                          5       1   11dy2              1.429532       3.076087
                          5       1   11dyz              1.429532       5.327939
                          5       1   11dz2              1.429532       3.076087

                          6       1    7px               1.889939       3.158637
                          6       1    7py               1.889939       3.158637
                          6       1    7pz               1.889939       3.158637

                          7       1   13fx3              2.090453       7.735623
                          7       1   13fx2y             2.090453      17.297380
                          7       1   13fx2z             2.090453      17.297380
                          7       1   13fxy2             2.090453      17.297380
                          7       1   13fxyz             2.090453      29.959941
                          7       1   13fxz2             2.090453      17.297380
                          7       1   13fy3              2.090453       7.735623
                          7       1   13fy2z             2.090453      17.297380
                          7       1   13fyz2             2.090453      17.297380
                          7       1   13fz3              2.090453       7.735623

                          8       1    3s                4.532550       2.213946

                          9       1   12dx2              4.657163      24.300880
                          9       1   12dxy              4.657163      42.090359
                          9       1   12dxz              4.657163      42.090359
                          9       1   12dy2              4.657163      24.300880
                          9       1   12dyz              4.657163      42.090359
                          9       1   12dz2              4.657163      24.300880

                         10       1    8px               7.383619      17.349090
                         10       1    8py               7.383619      17.349090
                         10       1    8pz               7.383619      17.349090

                         11       1    4s               28.138782       8.707411

                         12       1    9px              31.263869     105.376434
                         12       1    9py              31.263869     105.376434
                         12       1    9pz              31.263869     105.376434

                         13       1    5s              157.923413      31.750092

       Atomic covalent radius [Angstrom]:                                  0.730

       Atomic van der Waals radius [Angstrom]:                             1.520

     The atoms of this atomic kind are PAW atoms (GAPW):
       Hard Gaussian function radius:                                      1.512
       Rho0 radius:                                                        1.512
       Maximum GTO radius used for PAW projector construction:            24.566

     GAPW Soft Basis Set                                  aug-SZV-MOLOPT-ae_soft

       Number of orbital shell sets:                                           2
       Number of orbital shells:                                               5
       Number of primitive Cartesian functions:                                6
       Number of Cartesian basis functions:                                    9
       Number of spherical basis functions:                                    9
       Norm type:                                                              2

       Normalised Cartesian orbitals:

                        Set   Shell   Orbital            Exponent    Coefficient

                          1       1    1s                0.123000       0.000000
                                                         0.245881       0.059902
                                                         0.536420       0.265853
                                                         1.235135       0.208956
                                                         3.210345      -0.057750

                          1       2    2s                0.123000      -0.253465
                                                         0.245881       0.187097
                                                         0.536420       0.063592
                                                         1.235135       0.074938
                                                         3.210345       0.000000

                          1       3    2px               0.123000       0.000000
                                                         0.245881       0.025102
                                                         0.536420       0.278668
                                                         1.235135       0.775885
                                                         3.210345       1.065175
                          1       3    2py               0.123000       0.000000
                                                         0.245881       0.025102
                                                         0.536420       0.278668
                                                         1.235135       0.775885
                                                         3.210345       1.065175
                          1       3    2pz               0.123000       0.000000
                                                         0.245881       0.025102
                                                         0.536420       0.278668
                                                         1.235135       0.775885
                                                         3.210345       1.065175

                          1       4    3px               0.123000       0.048536
                                                         0.245881       0.257066
                                                         0.536420      -0.539300
                                                         1.235135      -0.153605
                                                         3.210345       0.000000
                          1       4    3py               0.123000       0.048536
                                                         0.245881       0.257066
                                                         0.536420      -0.539300
                                                         1.235135      -0.153605
                                                         3.210345       0.000000
                          1       4    3pz               0.123000       0.048536
                                                         0.245881       0.257066
                                                         0.536420      -0.539300
                                                         1.235135      -0.153605
                                                         3.210345       0.000000

                          2       1    1s                3.820341       0.253831

     AE Potential information for                                            ALL

       Description:                                       All-electron potential
                                          Krack, Parrinello, PCCP 2, 2105 (2000)

       Gaussian exponent of the core charge distribution:               8.154466
       Electronic configuration (s p d ...):                           4   4   0

  2. Atomic kind: H                                     Number of atoms:       8

     Orbital Basis Set                                         aug-SZV-MOLOPT-ae

       Number of orbital shell sets:                                           1
       Number of orbital shells:                                               4
       Number of primitive Cartesian functions:                                7
       Number of Cartesian basis functions:                                    6
       Number of spherical basis functions:                                    6
       Norm type:                                                              2

       Normalised Cartesian orbitals:

                        Set   Shell   Orbital            Exponent    Coefficient

                          1       1    1s                0.065428       0.000000
                                                         0.100112       0.016532
                                                         0.243077       0.102760
                                                         0.625955       0.185857
                                                         1.822143       0.188385
                                                         6.513144       0.143430
                                                        35.523221       0.095030

                          1       2    2s                0.065428       0.083549
                                                         0.100112       0.009605
                                                         0.243077       0.002524
                                                         0.625955       0.013457
                                                         1.822143       0.000000
                                                         6.513144       0.000000
                                                        35.523221       0.000000

                          1       3    3s                0.065428       0.037407
                                                         0.100112      -0.169070
                                                         0.243077      -0.018899
                                                         0.625955       0.012806
                                                         1.822143       0.000000
                                                         6.513144       0.000000
                                                        35.523221       0.000000

                          1       4    2px               0.065428       0.059908
                                                         0.100112      -0.023770
                                                         0.243077       0.000032
                                                         0.625955       0.017779
                                                         1.822143       0.000000
                                                         6.513144       0.000000
                                                        35.523221       0.000000
                          1       4    2py               0.065428       0.059908
                                                         0.100112      -0.023770
                                                         0.243077       0.000032
                                                         0.625955       0.017779
                                                         1.822143       0.000000
                                                         6.513144       0.000000
                                                        35.523221       0.000000
                          1       4    2pz               0.065428       0.059908
                                                         0.100112      -0.023770
                                                         0.243077       0.000032
                                                         0.625955       0.017779
                                                         1.822143       0.000000
                                                         6.513144       0.000000
                                                        35.523221       0.000000

     RI Auxiliary Basis Set             RI_aug-SZV-MOLOPT-ae_N_RI_007_s_p_d_f_g_

       Number of orbital shell sets:                                           5
       Number of orbital shells:                                               5
       Number of primitive Cartesian functions:                                5
       Number of Cartesian basis functions:                                    7
       Number of spherical basis functions:                                    7
       Norm type:                                                              2

       Normalised Cartesian orbitals:

                        Set   Shell   Orbital            Exponent    Coefficient

                          1       1    1s                0.148777       0.170731

                          2       1    5px               0.367452       0.407794
                          2       1    5py               0.367452       0.407794
                          2       1    5pz               0.367452       0.407794

                          3       1    2s                0.510503       0.430437

                          4       1    3s                1.106366       0.768837

                          5       1    4s                5.955292       2.716986

       Atomic covalent radius [Angstrom]:                                  0.320

       Atomic van der Waals radius [Angstrom]:                             1.090

     The atoms of this atomic kind are PAW atoms (GAPW):
       Hard Gaussian function radius:                                      1.200
       Rho0 radius:                                                        1.200
       Maximum GTO radius used for PAW projector construction:            24.566

     GAPW Soft Basis Set                                  aug-SZV-MOLOPT-ae_soft

       Number of orbital shell sets:                                           1
       Number of orbital shells:                                               4
       Number of primitive Cartesian functions:                                6
       Number of Cartesian basis functions:                                    6
       Number of spherical basis functions:                                    6
       Norm type:                                                              2

       Normalised Cartesian orbitals:

                        Set   Shell   Orbital            Exponent    Coefficient

                          1       1    1s                0.065428       0.000000
                                                         0.100112       0.016532
                                                         0.243077       0.102760
                                                         0.625955       0.185857
                                                         1.822143       0.188385
                                                         6.513144       0.000000

                          1       2    2s                0.065428       0.083549
                                                         0.100112       0.009605
                                                         0.243077       0.002524
                                                         0.625955       0.013457
                                                         1.822143       0.000000
                                                         6.513144       0.000000

                          1       3    3s                0.065428       0.037407
                                                         0.100112      -0.169070
                                                         0.243077      -0.018899
                                                         0.625955       0.012806
                                                         1.822143       0.000000
                                                         6.513144       0.000000

                          1       4    2px               0.065428       0.059908
                                                         0.100112      -0.023770
                                                         0.243077       0.000032
                                                         0.625955       0.017779
                                                         1.822143       0.000000
                                                         6.513144       0.000000
                          1       4    2py               0.065428       0.059908
                                                         0.100112      -0.023770
                                                         0.243077       0.000032
                                                         0.625955       0.017779
                                                         1.822143       0.000000
                                                         6.513144       0.000000
                          1       4    2pz               0.065428       0.059908
                                                         0.100112      -0.023770
                                                         0.243077       0.000032
                                                         0.625955       0.017779
                                                         1.822143       0.000000
                                                         6.513144       0.000000

     AE Potential information for                                            ALL

       Description:                                       All-electron potential
                                          Krack, Parrinello, PCCP 2, 2105 (2000)

       Gaussian exponent of the core charge distribution:              12.500000
       Electronic configuration (s p d ...):                           1   0   0

  3. Atomic kind: C                                     Number of atoms:       6

     Orbital Basis Set                                         aug-SZV-MOLOPT-ae

       Number of orbital shell sets:                                           2
       Number of orbital shells:                                               6
       Number of primitive Cartesian functions:                               13
       Number of Cartesian basis functions:                                   15
       Number of spherical basis functions:                                   14
       Norm type:                                                              2

       Normalised Cartesian orbitals:

                        Set   Shell   Orbital            Exponent    Coefficient

                          1       1    2s                0.070000       0.000000
                                                         0.143687       0.040037
                                                         0.313471       0.177689
                                                         0.721783       0.139661
                                                         1.876046      -0.038599
                                                         6.036200      -0.128975
                                                        30.497239      -0.122578

                          1       2    3s                0.070000      -0.142268
                                                         0.143687       0.288819
                                                         0.313471       0.010360
                                                         0.721783       0.175994
                                                         1.876046       0.000000
                                                         6.036200       0.000000
                                                        30.497239       0.000000

                          1       3    3px               0.070000       0.000000
                                                         0.143687       0.012825
                                                         0.313471       0.142381
                                                         0.721783       0.396426
                                                         1.876046       0.544234
                                                         6.036200       0.508157
                                                        30.497239       0.384077
                          1       3    3py               0.070000       0.000000
                                                         0.143687       0.012825
                                                         0.313471       0.142381
                                                         0.721783       0.396426
                                                         1.876046       0.544234
                                                         6.036200       0.508157
                                                        30.497239       0.384077
                          1       3    3pz               0.070000       0.000000
                                                         0.143687       0.012825
                                                         0.313471       0.142381
                                                         0.721783       0.396426
                                                         1.876046       0.544234
                                                         6.036200       0.508157
                                                        30.497239       0.384077

                          1       4    4px               0.070000       0.076505
                                                         0.143687      -0.086104
                                                         0.313471       0.010230
                                                         0.721783       0.129894
                                                         1.876046       0.000000
                                                         6.036200       0.000000
                                                        30.497239       0.000000
                          1       4    4py               0.070000       0.076505
                                                         0.143687      -0.086104
                                                         0.313471       0.010230
                                                         0.721783       0.129894
                                                         1.876046       0.000000
                                                         6.036200       0.000000
                                                        30.497239       0.000000
                          1       4    4pz               0.070000       0.076505
                                                         0.143687      -0.086104
                                                         0.313471       0.010230
                                                         0.721783       0.129894
                                                         1.876046       0.000000
                                                         6.036200       0.000000
                                                        30.497239       0.000000

                          1       5    4dx2              0.070000       0.004316
                                                         0.143687       0.012639
                                                         0.313471       0.125057
                                                         0.721783       0.080411
                                                         1.876046       0.000000
                                                         6.036200       0.000000
                                                        30.497239       0.000000
                          1       5    4dxy              0.070000       0.007476
                                                         0.143687       0.021892
                                                         0.313471       0.216606
                                                         0.721783       0.139276
                                                         1.876046       0.000000
                                                         6.036200       0.000000
                                                        30.497239       0.000000
                          1       5    4dxz              0.070000       0.007476
                                                         0.143687       0.021892
                                                         0.313471       0.216606
                                                         0.721783       0.139276
                                                         1.876046       0.000000
                                                         6.036200       0.000000
                                                        30.497239       0.000000
                          1       5    4dy2              0.070000       0.004316
                                                         0.143687       0.012639
                                                         0.313471       0.125057
                                                         0.721783       0.080411
                                                         1.876046       0.000000
                                                         6.036200       0.000000
                                                        30.497239       0.000000
                          1       5    4dyz              0.070000       0.007476
                                                         0.143687       0.021892
                                                         0.313471       0.216606
                                                         0.721783       0.139276
                                                         1.876046       0.000000
                                                         6.036200       0.000000
                                                        30.497239       0.000000
                          1       5    4dz2              0.070000       0.004316
                                                         0.143687       0.012639
                                                         0.313471       0.125057
                                                         0.721783       0.080411
                                                         1.876046       0.000000
                                                         6.036200       0.000000
                                                        30.497239       0.000000

                          2       1    1s              742.737049       0.929185
                                                       136.180025       1.402437
                                                        38.098264       1.841991
                                                        13.087782       1.817278
                                                         5.082369       1.004768
                                                         2.093200       0.161650

     RI Auxiliary Basis Set             RI_aug-SZV-MOLOPT-ae_N_RI_048_s_p_d_f_g_

       Number of orbital shell sets:                                          14
       Number of orbital shells:                                              14
       Number of primitive Cartesian functions:                               14
       Number of Cartesian basis functions:                                   62
       Number of spherical basis functions:                                   48
       Norm type:                                                              2

       Normalised Cartesian orbitals:

                        Set   Shell   Orbital            Exponent    Coefficient

                          1       1    1s                0.182132       0.198701

                          2       1    7px               0.213594       0.206979
                          2       1    7py               0.213594       0.206979
                          2       1    7pz               0.213594       0.206979

                          3       1   10dx2              0.381125       0.304282
                          3       1   10dxy              0.381125       0.527033
                          3       1   10dxz              0.381125       0.527033
                          3       1   10dy2              0.381125       0.304282
                          3       1   10dyz              0.381125       0.527033
                          3       1   10dz2              0.381125       0.304282

                          4       1    2s                0.433905       0.381027

                          5       1   12fx3              0.524446       0.344573
                          5       1   12fx2y             0.524446       0.770488
                          5       1   12fx2z             0.524446       0.770488
                          5       1   12fxy2             0.524446       0.770488
                          5       1   12fxyz             0.524446       1.334524
                          5       1   12fxz2             0.524446       0.770488
                          5       1   12fy3              0.524446       0.344573
                          5       1   12fy2z             0.524446       0.770488
                          5       1   12fyz2             0.524446       0.770488
                          5       1   12fz3              0.524446       0.344573

                          6       1    8px               0.915857       1.277099
                          6       1    8py               0.915857       1.277099
                          6       1    8pz               0.915857       1.277099

                          7       1   14gx4              1.217666       1.912659
                          7       1   14gx3y             1.217666       5.060419
                          7       1   14gx3z             1.217666       5.060419
                          7       1   14gx2y2            1.217666       6.532973
                          7       1   14gx2yz            1.217666      11.315442
                          7       1   14gx2z2            1.217666       6.532973
                          7       1   14gxy3             1.217666       5.060419
                          7       1   14gxy2z            1.217666      11.315442
                          7       1   14gxyz2            1.217666      11.315442
                          7       1   14gxz3             1.217666       5.060419
                          7       1   14gy4              1.217666       1.912659
                          7       1   14gy3z             1.217666       5.060419
                          7       1   14gy2z2            1.217666       6.532973
                          7       1   14gyz3             1.217666       5.060419
                          7       1   14gz4              1.217666       1.912659

                          8       1   11dx2              1.581488       3.670921
                          8       1   11dxy              1.581488       6.358221
                          8       1   11dxz              1.581488       6.358221
                          8       1   11dy2              1.581488       3.670921
                          8       1   11dyz              1.581488       6.358221
                          8       1   11dz2              1.581488       3.670921

                          9       1    3s                1.620693       1.023730

                         10       1   13fx3              2.677157      13.496481
                         10       1   13fx2y             2.677157      30.179050
                         10       1   13fx2z             2.677157      30.179050
                         10       1   13fxy2             2.677157      30.179050
                         10       1   13fxyz             2.677157      52.271648
                         10       1   13fxz2             2.677157      30.179050
                         10       1   13fy3              2.677157      13.496481
                         10       1   13fy2z             2.677157      30.179050
                         10       1   13fyz2             2.677157      30.179050
                         10       1   13fz3              2.677157      13.496481

                         11       1    4s                5.999661       2.732154

                         12       1    9px               9.284861      23.102519
                         12       1    9py               9.284861      23.102519
                         12       1    9pz               9.284861      23.102519

                         13       1    5s               22.224963       7.295262

                         14       1    6s               82.329769      19.479498

       Atomic covalent radius [Angstrom]:                                  0.770

       Atomic van der Waals radius [Angstrom]:                             1.700

     The atoms of this atomic kind are PAW atoms (GAPW):
       Hard Gaussian function radius:                                      1.512
       Rho0 radius:                                                        1.512
       Maximum GTO radius used for PAW projector construction:            24.566

     GAPW Soft Basis Set                                  aug-SZV-MOLOPT-ae_soft

       Number of orbital shell sets:                                           2
       Number of orbital shells:                                               6
       Number of primitive Cartesian functions:                                6
       Number of Cartesian basis functions:                                   15
       Number of spherical basis functions:                                   14
       Norm type:                                                              2

       Normalised Cartesian orbitals:

                        Set   Shell   Orbital            Exponent    Coefficient

                          1       1    2s                0.070000       0.000000
                                                         0.143687       0.040037
                                                         0.313471       0.177689
                                                         0.721783       0.139661
                                                         1.876046      -0.038599

                          1       2    3s                0.070000      -0.142268
                                                         0.143687       0.288819
                                                         0.313471       0.010360
                                                         0.721783       0.175994
                                                         1.876046       0.000000

                          1       3    3px               0.070000       0.000000
                                                         0.143687       0.012825
                                                         0.313471       0.142381
                                                         0.721783       0.396426
                                                         1.876046       0.544234
                          1       3    3py               0.070000       0.000000
                                                         0.143687       0.012825
                                                         0.313471       0.142381
                                                         0.721783       0.396426
                                                         1.876046       0.544234
                          1       3    3pz               0.070000       0.000000
                                                         0.143687       0.012825
                                                         0.313471       0.142381
                                                         0.721783       0.396426
                                                         1.876046       0.544234

                          1       4    4px               0.070000       0.076505
                                                         0.143687      -0.086104
                                                         0.313471       0.010230
                                                         0.721783       0.129894
                                                         1.876046       0.000000
                          1       4    4py               0.070000       0.076505
                                                         0.143687      -0.086104
                                                         0.313471       0.010230
                                                         0.721783       0.129894
                                                         1.876046       0.000000
                          1       4    4pz               0.070000       0.076505
                                                         0.143687      -0.086104
                                                         0.313471       0.010230
                                                         0.721783       0.129894
                                                         1.876046       0.000000

                          1       5    4dx2              0.070000       0.004316
                                                         0.143687       0.012639
                                                         0.313471       0.125057
                                                         0.721783       0.080411
                                                         1.876046       0.000000
                          1       5    4dxy              0.070000       0.007476
                                                         0.143687       0.021892
                                                         0.313471       0.216606
                                                         0.721783       0.139276
                                                         1.876046       0.000000
                          1       5    4dxz              0.070000       0.007476
                                                         0.143687       0.021892
                                                         0.313471       0.216606
                                                         0.721783       0.139276
                                                         1.876046       0.000000
                          1       5    4dy2              0.070000       0.004316
                                                         0.143687       0.012639
                                                         0.313471       0.125057
                                                         0.721783       0.080411
                                                         1.876046       0.000000
                          1       5    4dyz              0.070000       0.007476
                                                         0.143687       0.021892
                                                         0.313471       0.216606
                                                         0.721783       0.139276
                                                         1.876046       0.000000
                          1       5    4dz2              0.070000       0.004316
                                                         0.143687       0.012639
                                                         0.313471       0.125057
                                                         0.721783       0.080411
                                                         1.876046       0.000000

                          2       1    1s                2.093200       0.161650

     AE Potential information for                                            ALL

       Description:                                       All-electron potential
                                          Krack, Parrinello, PCCP 2, 2105 (2000)

       Gaussian exponent of the core charge distribution:               4.109048
       Electronic configuration (s p d ...):                           4   2   0

  4. Atomic kind: N                                     Number of atoms:       3

     Orbital Basis Set                                         aug-SZV-MOLOPT-ae

       Number of orbital shell sets:                                           2
       Number of orbital shells:                                               6
       Number of primitive Cartesian functions:                               13
       Number of Cartesian basis functions:                                   15
       Number of spherical basis functions:                                   14
       Norm type:                                                              2

       Normalised Cartesian orbitals:

                        Set   Shell   Orbital            Exponent    Coefficient

                          1       1    1s                0.090000       0.000000
                                                         0.184684       0.048330
                                                         0.402911       0.214496
                                                         0.927724       0.168591
                                                         2.411326      -0.046594
                                                         7.758467      -0.155691
                                                        39.198808      -0.147969

                          1       2    2s                0.090000      -0.118940
                                                         0.184684       0.080942
                                                         0.402911      -0.164238
                                                         0.927724      -0.024406
                                                         2.411326       0.000000
                                                         7.758467       0.000000
                                                        39.198808       0.000000

                          1       3    2px               0.090000       0.000000
                                                         0.184684       0.017552
                                                         0.402911       0.194858
                                                         0.927724       0.542535
                                                         2.411326       0.744820
                                                         7.758467       0.695446
                                                        39.198808       0.525635
                          1       3    2py               0.090000       0.000000
                                                         0.184684       0.017552
                                                         0.402911       0.194858
                                                         0.927724       0.542535
                                                         2.411326       0.744820
                                                         7.758467       0.695446
                                                        39.198808       0.525635
                          1       3    2pz               0.090000       0.000000
                                                         0.184684       0.017552
                                                         0.402911       0.194858
                                                         0.927724       0.542535
                                                         2.411326       0.744820
                                                         7.758467       0.695446
                                                        39.198808       0.525635

                          1       4    3px               0.090000      -0.032237
                                                         0.184684      -0.080882
                                                         0.402911       0.112185
                                                         0.927724       1.067728
                                                         2.411326       0.000000
                                                         7.758467       0.000000
                                                        39.198808       0.000000
                          1       4    3py               0.090000      -0.032237
                                                         0.184684      -0.080882
                                                         0.402911       0.112185
                                                         0.927724       1.067728
                                                         2.411326       0.000000
                                                         7.758467       0.000000
                                                        39.198808       0.000000
                          1       4    3pz               0.090000      -0.032237
                                                         0.184684      -0.080882
                                                         0.402911       0.112185
                                                         0.927724       1.067728
                                                         2.411326       0.000000
                                                         7.758467       0.000000
                                                        39.198808       0.000000

                          1       5    3dx2              0.090000      -0.010633
                                                         0.184684      -0.050923
                                                         0.402911       0.103346
                                                         0.927724      -0.777682
                                                         2.411326       0.000000
                                                         7.758467       0.000000
                                                        39.198808       0.000000
                          1       5    3dxy              0.090000      -0.018417
                                                         0.184684      -0.088201
                                                         0.402911       0.179000
                                                         0.927724      -1.346985
                                                         2.411326       0.000000
                                                         7.758467       0.000000
                                                        39.198808       0.000000
                          1       5    3dxz              0.090000      -0.018417
                                                         0.184684      -0.088201
                                                         0.402911       0.179000
                                                         0.927724      -1.346985
                                                         2.411326       0.000000
                                                         7.758467       0.000000
                                                        39.198808       0.000000
                          1       5    3dy2              0.090000      -0.010633
                                                         0.184684      -0.050923
                                                         0.402911       0.103346
                                                         0.927724      -0.777682
                                                         2.411326       0.000000
                                                         7.758467       0.000000
                                                        39.198808       0.000000
                          1       5    3dyz              0.090000      -0.018417
                                                         0.184684      -0.088201
                                                         0.402911       0.179000
                                                         0.927724      -1.346985
                                                         2.411326       0.000000
                                                         7.758467       0.000000
                                                        39.198808       0.000000
                          1       5    3dz2              0.090000      -0.010633
                                                         0.184684      -0.050923
                                                         0.402911       0.103346
                                                         0.927724      -0.777682
                                                         2.411326       0.000000
                                                         7.758467       0.000000
                                                        39.198808       0.000000

                          2       1    1s             1027.828458       1.185541
                                                       188.451223       1.789359
                                                        52.721861       2.350183
                                                        18.111382       2.318652
                                                         7.033180       1.281976
                                                         2.896652       0.206248

     RI Auxiliary Basis Set             RI_aug-SZV-MOLOPT-ae_N_RI_043_s_p_d_f_g_

       Number of orbital shell sets:                                          15
       Number of orbital shells:                                              15
       Number of primitive Cartesian functions:                               15
       Number of Cartesian basis functions:                                   49
       Number of spherical basis functions:                                   43
       Norm type:                                                              2

       Normalised Cartesian orbitals:

                        Set   Shell   Orbital            Exponent    Coefficient

                          1       1    1s                0.348881       0.323533

                          2       1   12dx2              0.415899       0.354517
                          2       1   12dxy              0.415899       0.614042
                          2       1   12dxz              0.415899       0.614042
                          2       1   12dy2              0.415899       0.354517
                          2       1   12dyz              0.415899       0.614042
                          2       1   12dz2              0.415899       0.354517

                          3       1    7px               0.565430       0.698898
                          3       1    7py               0.565430       0.698898
                          3       1    7pz               0.565430       0.698898

                          4       1    2s                0.604256       0.488456

                          5       1    8px               0.736384       0.972345
                          5       1    8py               0.736384       0.972345
                          5       1    8pz               0.736384       0.972345

                          6       1   15fx3              1.197807       2.209658
                          6       1   15fx2y             1.197807       4.940945
                          6       1   15fx2z             1.197807       4.940945
                          6       1   15fxy2             1.197807       4.940945
                          6       1   15fxyz             1.197807       8.557969
                          6       1   15fxz2             1.197807       4.940945
                          6       1   15fy3              1.197807       2.209658
                          6       1   15fy2z             1.197807       4.940945
                          6       1   15fyz2             1.197807       4.940945
                          6       1   15fz3              1.197807       2.209658

                          7       1   13dx2              1.339145       2.743833
                          7       1   13dxy              1.339145       4.752458
                          7       1   13dxz              1.339145       4.752458
                          7       1   13dy2              1.339145       2.743833
                          7       1   13dyz              1.339145       4.752458
                          7       1   13dz2              1.339145       2.743833

                          8       1    3s                2.115726       1.250273

                          9       1    9px               3.057998       5.764167
                          9       1    9py               3.057998       5.764167
                          9       1    9pz               3.057998       5.764167

                         10       1   14dx2              5.406341      31.549351
                         10       1   14dxy              5.406341      54.645078
                         10       1   14dxz              5.406341      54.645078
                         10       1   14dy2              5.406341      31.549351
                         10       1   14dyz              5.406341      54.645078
                         10       1   14dz2              5.406341      31.549351

                         11       1    4s                8.101925       3.422562

                         12       1   10px               9.242623      22.971223
                         12       1   10py               9.242623      22.971223
                         12       1   10pz               9.242623      22.971223

                         13       1   11px              24.533825      77.829934
                         13       1   11py              24.533825      77.829934
                         13       1   11pz              24.533825      77.829934

                         14       1    5s               30.207474       9.183239

                         15       1    6s              110.078037      24.220639

       Atomic covalent radius [Angstrom]:                                  0.750

       Atomic van der Waals radius [Angstrom]:                             1.550

     The atoms of this atomic kind are PAW atoms (GAPW):
       Hard Gaussian function radius:                                      1.512
       Rho0 radius:                                                        1.512
       Maximum GTO radius used for PAW projector construction:            24.566

     GAPW Soft Basis Set                                  aug-SZV-MOLOPT-ae_soft

       Number of orbital shell sets:                                           2
       Number of orbital shells:                                               6
       Number of primitive Cartesian functions:                                6
       Number of Cartesian basis functions:                                   15
       Number of spherical basis functions:                                   14
       Norm type:                                                              2

       Normalised Cartesian orbitals:

                        Set   Shell   Orbital            Exponent    Coefficient

                          1       1    1s                0.090000       0.000000
                                                         0.184684       0.048330
                                                         0.402911       0.214496
                                                         0.927724       0.168591
                                                         2.411326      -0.046594

                          1       2    2s                0.090000      -0.118940
                                                         0.184684       0.080942
                                                         0.402911      -0.164238
                                                         0.927724      -0.024406
                                                         2.411326       0.000000

                          1       3    2px               0.090000       0.000000
                                                         0.184684       0.017552
                                                         0.402911       0.194858
                                                         0.927724       0.542535
                                                         2.411326       0.744820
                          1       3    2py               0.090000       0.000000
                                                         0.184684       0.017552
                                                         0.402911       0.194858
                                                         0.927724       0.542535
                                                         2.411326       0.744820
                          1       3    2pz               0.090000       0.000000
                                                         0.184684       0.017552
                                                         0.402911       0.194858
                                                         0.927724       0.542535
                                                         2.411326       0.744820

                          1       4    3px               0.090000      -0.032237
                                                         0.184684      -0.080882
                                                         0.402911       0.112185
                                                         0.927724       1.067728
                                                         2.411326       0.000000
                          1       4    3py               0.090000      -0.032237
                                                         0.184684      -0.080882
                                                         0.402911       0.112185
                                                         0.927724       1.067728
                                                         2.411326       0.000000
                          1       4    3pz               0.090000      -0.032237
                                                         0.184684      -0.080882
                                                         0.402911       0.112185
                                                         0.927724       1.067728
                                                         2.411326       0.000000

                          1       5    3dx2              0.090000      -0.010633
                                                         0.184684      -0.050923
                                                         0.402911       0.103346
                                                         0.927724      -0.777682
                                                         2.411326       0.000000
                          1       5    3dxy              0.090000      -0.018417
                                                         0.184684      -0.088201
                                                         0.402911       0.179000
                                                         0.927724      -1.346985
                                                         2.411326       0.000000
                          1       5    3dxz              0.090000      -0.018417
                                                         0.184684      -0.088201
                                                         0.402911       0.179000
                                                         0.927724      -1.346985
                                                         2.411326       0.000000
                          1       5    3dy2              0.090000      -0.010633
                                                         0.184684      -0.050923
                                                         0.402911       0.103346
                                                         0.927724      -0.777682
                                                         2.411326       0.000000
                          1       5    3dyz              0.090000      -0.018417
                                                         0.184684      -0.088201
                                                         0.402911       0.179000
                                                         0.927724      -1.346985
                                                         2.411326       0.000000
                          1       5    3dz2              0.090000      -0.010633
                                                         0.184684      -0.050923
                                                         0.402911       0.103346
                                                         0.927724      -0.777682
                                                         2.411326       0.000000

                          2       1    1s                2.896652       0.206248

     AE Potential information for                                            ALL

       Description:                                       All-electron potential
                                          Krack, Parrinello, PCCP 2, 2105 (2000)

       Gaussian exponent of the core charge distribution:               5.979100
       Electronic configuration (s p d ...):                           4   3   0

  5. Atomic kind: F                                     Number of atoms:       1

     Orbital Basis Set                                         aug-SZV-MOLOPT-ae

       Number of orbital shell sets:                                           2
       Number of orbital shells:                                               6
       Number of primitive Cartesian functions:                               13
       Number of Cartesian basis functions:                                   15
       Number of spherical basis functions:                                   14
       Norm type:                                                              2

       Normalised Cartesian orbitals:

                        Set   Shell   Orbital            Exponent    Coefficient

                          1       1    1s                0.155133       0.000000
                                                         0.315820       0.072273
                                                         0.689002       0.320758
                                                         1.586463       0.252111
                                                         4.123510      -0.069677
                                                        13.267438      -0.232821
                                                        67.032281      -0.221274

                          1       2    2s                0.155133      -0.179489
                                                         0.315820      -0.016230
                                                         0.689002      -0.059266
                                                         1.586463       0.485286
                                                         4.123510       0.000000
                                                        13.267438       0.000000
                                                        67.032281       0.000000

                          1       3    2px               0.155133       0.000000
                                                         0.315820       0.034324
                                                         0.689002       0.381050
                                                         1.586463       1.060942
                                                         4.123510       1.456516
                                                        13.267438       1.359964
                                                        67.032281       1.027893
                          1       3    2py               0.155133       0.000000
                                                         0.315820       0.034324
                                                         0.689002       0.381050
                                                         1.586463       1.060942
                                                         4.123510       1.456516
                                                        13.267438       1.359964
                                                        67.032281       1.027893
                          1       3    2pz               0.155133       0.000000
                                                         0.315820       0.034324
                                                         0.689002       0.381050
                                                         1.586463       1.060942
                                                         4.123510       1.456516
                                                        13.267438       1.359964
                                                        67.032281       1.027893

                          1       4    3px               0.155133       0.147830
                                                         0.315820       0.027789
                                                         0.689002      -0.276015
                                                         1.586463      -0.305674
                                                         4.123510       0.000000
                                                        13.267438       0.000000
                                                        67.032281       0.000000
                          1       4    3py               0.155133       0.147830
                                                         0.315820       0.027789
                                                         0.689002      -0.276015
                                                         1.586463      -0.305674
                                                         4.123510       0.000000
                                                        13.267438       0.000000
                                                        67.032281       0.000000
                          1       4    3pz               0.155133       0.147830
                                                         0.315820       0.027789
                                                         0.689002      -0.276015
                                                         1.586463      -0.305674
                                                         4.123510       0.000000
                                                        13.267438       0.000000
                                                        67.032281       0.000000

                          1       5    3dx2              0.155133       0.001192
                                                         0.315820       0.007166
                                                         0.689002       0.163958
                                                         1.586463       3.063217
                                                         4.123510       0.000000
                                                        13.267438       0.000000
                                                        67.032281       0.000000
                          1       5    3dxy              0.155133       0.002065
                                                         0.315820       0.012412
                                                         0.689002       0.283983
                                                         1.586463       5.305647
                                                         4.123510       0.000000
                                                        13.267438       0.000000
                                                        67.032281       0.000000
                          1       5    3dxz              0.155133       0.002065
                                                         0.315820       0.012412
                                                         0.689002       0.283983
                                                         1.586463       5.305647
                                                         4.123510       0.000000
                                                        13.267438       0.000000
                                                        67.032281       0.000000
                          1       5    3dy2              0.155133       0.001192
                                                         0.315820       0.007166
                                                         0.689002       0.163958
                                                         1.586463       3.063217
                                                         4.123510       0.000000
                                                        13.267438       0.000000
                                                        67.032281       0.000000
                          1       5    3dyz              0.155133       0.002065
                                                         0.315820       0.012412
                                                         0.689002       0.283983
                                                         1.586463       5.305647
                                                         4.123510       0.000000
                                                        13.267438       0.000000
                                                        67.032281       0.000000
                          1       5    3dz2              0.155133       0.001192
                                                         0.315820       0.007166
                                                         0.689002       0.163958
                                                         1.586463       3.063217
                                                         4.123510       0.000000
                                                        13.267438       0.000000
                                                        67.032281       0.000000

                          2       1    1s             1728.626574       1.750862
                                                       316.941790       2.642610
                                                        88.668891       3.470861
                                                        30.460157       3.424294
                                                        11.828570       1.893283
                                                         4.871659       0.304597

     RI Auxiliary Basis Set             RI_aug-SZV-MOLOPT-ae_N_RI_031_s_p_d_f_g_

       Number of orbital shell sets:                                          11
       Number of orbital shells:                                              11
       Number of primitive Cartesian functions:                               11
       Number of Cartesian basis functions:                                   36
       Number of spherical basis functions:                                   31
       Norm type:                                                              2

       Normalised Cartesian orbitals:

                        Set   Shell   Orbital            Exponent    Coefficient

                          1       1    1s                0.317894       0.301732

                          2       1    9dx2              0.524090       0.531337
                          2       1    9dxy              0.524090       0.920302
                          2       1    9dxz              0.524090       0.920302
                          2       1    9dy2              0.524090       0.531337
                          2       1    9dyz              0.524090       0.920302
                          2       1    9dz2              0.524090       0.531337

                          3       1    6px               0.746136       0.988468
                          3       1    6py               0.746136       0.988468
                          3       1    6pz               0.746136       0.988468

                          4       1    2s                1.392054       0.913382

                          5       1    7px               1.615444       2.596002
                          5       1    7py               1.615444       2.596002
                          5       1    7pz               1.615444       2.596002

                          6       1   10dx2              2.575615       8.618887
                          6       1   10dxy              2.575615      14.928350
                          6       1   10dxz              2.575615      14.928350
                          6       1   10dy2              2.575615       8.618887
                          6       1   10dyz              2.575615      14.928350
                          6       1   10dz2              2.575615       8.618887

                          7       1   11fx3              2.583079      12.452720
                          7       1   11fx2y             2.583079      27.845128
                          7       1   11fx2z             2.583079      27.845128
                          7       1   11fxy2             2.583079      27.845128
                          7       1   11fxyz             2.583079      48.229177
                          7       1   11fxz2             2.583079      27.845128
                          7       1   11fy3              2.583079      12.452720
                          7       1   11fy2z             2.583079      27.845128
                          7       1   11fyz2             2.583079      27.845128
                          7       1   11fz3              2.583079      12.452720

                          8       1    3s                3.617131       1.869318

                          9       1    8px               8.515448      20.734782
                          9       1    8py               8.515448      20.734782
                          9       1    8pz               8.515448      20.734782

                         10       1    4s               31.214795       9.411968

                         11       1    5s              195.679475      37.287996

       Atomic covalent radius [Angstrom]:                                  0.720

       Atomic van der Waals radius [Angstrom]:                             1.470

     The atoms of this atomic kind are PAW atoms (GAPW):
       Hard Gaussian function radius:                                      1.512
       Rho0 radius:                                                        1.512
       Maximum GTO radius used for PAW projector construction:            24.566

     GAPW Soft Basis Set                                  aug-SZV-MOLOPT-ae_soft

       Number of orbital shell sets:                                           2
       Number of orbital shells:                                               6
       Number of primitive Cartesian functions:                                5
       Number of Cartesian basis functions:                                   15
       Number of spherical basis functions:                                   14
       Norm type:                                                              2

       Normalised Cartesian orbitals:

                        Set   Shell   Orbital            Exponent    Coefficient

                          1       1    1s                0.155133       0.000000
                                                         0.315820       0.072273
                                                         0.689002       0.320758
                                                         1.586463       0.252111
                                                         4.123510       0.000000

                          1       2    2s                0.155133      -0.179489
                                                         0.315820      -0.016230
                                                         0.689002      -0.059266
                                                         1.586463       0.485286
                                                         4.123510       0.000000

                          1       3    2px               0.155133       0.000000
                                                         0.315820       0.034324
                                                         0.689002       0.381050
                                                         1.586463       1.060942
                                                         4.123510       1.456516
                          1       3    2py               0.155133       0.000000
                                                         0.315820       0.034324
                                                         0.689002       0.381050
                                                         1.586463       1.060942
                                                         4.123510       1.456516
                          1       3    2pz               0.155133       0.000000
                                                         0.315820       0.034324
                                                         0.689002       0.381050
                                                         1.586463       1.060942
                                                         4.123510       1.456516

                          1       4    3px               0.155133       0.147830
                                                         0.315820       0.027789
                                                         0.689002      -0.276015
                                                         1.586463      -0.305674
                                                         4.123510       0.000000
                          1       4    3py               0.155133       0.147830
                                                         0.315820       0.027789
                                                         0.689002      -0.276015
                                                         1.586463      -0.305674
                                                         4.123510       0.000000
                          1       4    3pz               0.155133       0.147830
                                                         0.315820       0.027789
                                                         0.689002      -0.276015
                                                         1.586463      -0.305674
                                                         4.123510       0.000000

                          1       5    3dx2              0.155133       0.001192
                                                         0.315820       0.007166
                                                         0.689002       0.163958
                                                         1.586463       3.063217
                                                         4.123510       0.000000
                          1       5    3dxy              0.155133       0.002065
                                                         0.315820       0.012412
                                                         0.689002       0.283983
                                                         1.586463       5.305647
                                                         4.123510       0.000000
                          1       5    3dxz              0.155133       0.002065
                                                         0.315820       0.012412
                                                         0.689002       0.283983
                                                         1.586463       5.305647
                                                         4.123510       0.000000
                          1       5    3dy2              0.155133       0.001192
                                                         0.315820       0.007166
                                                         0.689002       0.163958
                                                         1.586463       3.063217
                                                         4.123510       0.000000
                          1       5    3dyz              0.155133       0.002065
                                                         0.315820       0.012412
                                                         0.689002       0.283983
                                                         1.586463       5.305647
                                                         4.123510       0.000000
                          1       5    3dz2              0.155133       0.001192
                                                         0.315820       0.007166
                                                         0.689002       0.163958
                                                         1.586463       3.063217
                                                         4.123510       0.000000

                          2       1    1s         

     AE Potential information for                                            ALL

       Description:                                       All-electron potential
                                          Krack, Parrinello, PCCP 2, 2105 (2000)

       Gaussian exponent of the core charge distribution:              10.470541
       Electronic configuration (s p d ...):                           4   5   0


 MOLECULE KIND INFORMATION


 All atoms are their own molecule, skipping detailed information


 TOTAL NUMBERS AND MAXIMUM NUMBERS

  Total number of            - Atomic kinds:                                   5
                             - Atoms:                                         20
                             - Shell sets:                                    32
                             - Shells:                                       102
                             - Primitive Cartesian functions:                212
                             - Cartesian basis functions:                    216
                             - Spherical basis functions:                    206

  Maximum angular momentum of the orbital basis functions:                     2


 MODULE QUICKSTEP: ATOMIC COORDINATES IN ANGSTROM

   Atom Kind Element         X             Y             Z       Z(eff)     Mass
      1    1 O     8     12.716986     14.761008     17.746553   8.0000  15.9994
      2    2 H     1     12.453590     14.461176     18.638333   1.0000   1.0079
      3    3 C     6     14.681604     14.242387     13.133345   6.0000  12.0107
      4    2 H     1     13.731914     13.761935     12.934069   1.0000   1.0079
      5    4 N     7     15.485752     14.737270     12.112055   7.0000  14.0067
      6    2 H     1     15.311802     14.700371     11.115389   1.0000   1.0079
      7    3 C     6     14.933805     14.221360     15.700799   6.0000  12.0107
      8    2 H     1     15.728711     13.679743     16.236123   1.0000   1.0079
      9    2 H     1     14.043518     13.576823     15.677044   1.0000   1.0079
     10    3 C     6     15.358823     14.505878     14.300574   6.0000  12.0107
     11    3 C     6     16.577550     15.260838     12.723489   6.0000  12.0107
     12    5 F     9     17.546410     15.815663     11.999794   9.0000  18.9984
     13    3 C     6     14.030867     15.110218     17.844865   6.0000  12.0107
     14    3 C     6     14.608417     15.527913     16.503614   6.0000  12.0107
     15    2 H     1     13.815361     16.055609     15.949361   1.0000   1.0079
     16    4 N     7     15.731159     16.423177     16.728862   7.0000  14.0067
     17    2 H     1     16.251362     16.105646     17.549053   1.0000   1.0079
     18    2 H     1     16.362508     16.397245     15.925670   1.0000   1.0079
     19    4 N     7     16.562698     15.154531     14.018788   7.0000  14.0067
     20    1 O     8     14.651844     15.043784     18.884611   8.0000  15.9994



 SCF PARAMETERS         Density guess:                                    ATOMIC
                        --------------------------------------------------------
                        max_scf:                                             500
                        max_scf_history:                                       0
                        max_diis:                                              4
                        --------------------------------------------------------
                        eps_scf:                                        1.00E-06
                        eps_scf_history:                                0.00E+00
                        eps_diis:                                       1.00E-01
                        eps_eigval:                                     1.00E-05
                        --------------------------------------------------------
                        level_shift [a.u.]:                             0.000000
                        added MOs                                       161    0
                        --------------------------------------------------------
                        Mixing method:                            BROYDEN_MIXING
                                                charge density mixing in g-space
                        --------------------------------------------------------
                        No outer SCF

 PW_GRID| Information for grid number                                          1
 PW_GRID| Grid distributed over                                   192 processors
 PW_GRID| Real space group dimensions                                   192    1
 PW_GRID| the grid is blocked:                                                NO
 PW_GRID| Cutoff [a.u.]                                                    250.0
 PW_GRID| spherical cutoff:                                                   NO
 PW_GRID|   Bounds   1           -202     202                Points:         405
 PW_GRID|   Bounds   2           -202     202                Points:         405
 PW_GRID|   Bounds   3           -202     202                Points:         405
 PW_GRID| Volume element (a.u.^3)  0.2743E-02     Volume (a.u.^3)    182205.0337
 PW_GRID| Grid span                                                    FULLSPACE
 PW_GRID|   Distribution                         Average         Max         Min
 PW_GRID|   G-Vectors                           345990.2      346275      345870
 PW_GRID|   G-Rays                                 854.3         855         854
 PW_GRID|   Real Space Points                   345990.2      492075      328050

 PW_GRID| Information for grid number                                          2
 PW_GRID| Number of the reference grid                                         1
 PW_GRID| Grid distributed over                                   192 processors
 PW_GRID| Real space group dimensions                                   192    1
 PW_GRID| the grid is blocked:                                                NO
 PW_GRID| Cutoff [a.u.]                                                     83.3
 PW_GRID| spherical cutoff:                                                   NO
 PW_GRID|   Bounds   1           -120     119                Points:         240
 PW_GRID|   Bounds   2           -120     119                Points:         240
 PW_GRID|   Bounds   3           -120     119                Points:         240
 PW_GRID| Volume element (a.u.^3)  0.1318E-01     Volume (a.u.^3)    182205.0337
 PW_GRID| Grid span                                                    FULLSPACE
 PW_GRID|   Distribution                         Average         Max         Min
 PW_GRID|   G-Vectors                            72000.0       72240       71760
 PW_GRID|   G-Rays                                 300.0         301         299
 PW_GRID|   Real Space Points                    72000.0      115200       57600

 PW_GRID| Information for grid number                                          3
 PW_GRID| Number of the reference grid                                         1
 PW_GRID| Grid distributed over                                   192 processors
 PW_GRID| Real space group dimensions                                    12   16
 PW_GRID| the grid is blocked:                                                NO
 PW_GRID| Cutoff [a.u.]                                                     27.8
 PW_GRID| spherical cutoff:                                                   NO
 PW_GRID|   Bounds   1            -67      67                Points:         135
 PW_GRID|   Bounds   2            -67      67                Points:         135
 PW_GRID|   Bounds   3            -67      67                Points:         135
 PW_GRID| Volume element (a.u.^3)  0.7406E-01     Volume (a.u.^3)    182205.0337
 PW_GRID| Grid span                                                    FULLSPACE
 PW_GRID|   Distribution                         Average         Max         Min
 PW_GRID|   G-Vectors                            12814.5       12960       12690
 PW_GRID|   G-Rays                                  94.9          96          94
 PW_GRID|   Real Space Points                    12814.5       14580       11880

 PW_GRID| Information for grid number                                          4
 PW_GRID| Number of the reference grid                                         1
 PW_GRID| Grid distributed over                                   192 processors
 PW_GRID| Real space group dimensions                                    12   16
 PW_GRID| the grid is blocked:                                                NO
 PW_GRID| Cutoff [a.u.]                                                      9.3
 PW_GRID| spherical cutoff:                                                   NO
 PW_GRID|   Bounds   1            -40      39                Points:          80
 PW_GRID|   Bounds   2            -40      39                Points:          80
 PW_GRID|   Bounds   3            -40      39                Points:          80
 PW_GRID| Volume element (a.u.^3)  0.3559         Volume (a.u.^3)    182205.0337
 PW_GRID| Grid span                                                    FULLSPACE
 PW_GRID|   Distribution                         Average         Max         Min
 PW_GRID|   G-Vectors                             2666.7        2800        2560
 PW_GRID|   G-Rays                                  33.3          35          32
 PW_GRID|   Real Space Points                     2666.7        2800        2400

 POISSON| Solver                                                         WAVELET
 POISSON| Wavelet| Scaling function                                           40
 POISSON| Periodicity                                                       NONE

 RS_GRID| Information for grid number                                          1
 RS_GRID|   Bounds   1           -202     202                Points:         405
 RS_GRID|   Bounds   2           -202     202                Points:         405
 RS_GRID|   Bounds   3           -202     202                Points:         405
 RS_GRID| Real space distribution over                                  4 groups
 RS_GRID| Real space distribution along direction                              1
 RS_GRID| Border size                                                         35
 RS_GRID| Real space distribution over                                  6 groups
 RS_GRID| Real space distribution along direction                              2
 RS_GRID| Border size                                                         35
 RS_GRID| Real space distribution over                                  8 groups
 RS_GRID| Real space distribution along direction                              3
 RS_GRID| Border size                                                         35
 RS_GRID|   Distribution                         Average         Max         Min
 RS_GRID|   Planes                                 171.2         172         171
 RS_GRID|   Distribution                         Average         Max         Min
 RS_GRID|   Planes                                 137.5         138         137
 RS_GRID|   Distribution                         Average         Max         Min
 RS_GRID|   Planes                                 120.6         121         120

 RS_GRID| Information for grid number                                          2
 RS_GRID|   Bounds   1           -120     119                Points:         240
 RS_GRID|   Bounds   2           -120     119                Points:         240
 RS_GRID|   Bounds   3           -120     119                Points:         240
 RS_GRID| Real space distribution over                                  4 groups
 RS_GRID| Real space distribution along direction                              1
 RS_GRID| Border size                                                         37
 RS_GRID| Real space distribution over                                  6 groups
 RS_GRID| Real space distribution along direction                              2
 RS_GRID| Border size                                                         37
 RS_GRID| Real space distribution over                                  8 groups
 RS_GRID| Real space distribution along direction                              3
 RS_GRID| Border size                                                         37
 RS_GRID|   Distribution                         Average         Max         Min
 RS_GRID|   Planes                                 134.0         134         134
 RS_GRID|   Distribution                         Average         Max         Min
 RS_GRID|   Planes                                 114.0         114         114
 RS_GRID|   Distribution                         Average         Max         Min
 RS_GRID|   Planes                                 104.0         104         104

 RS_GRID| Information for grid number                                          3
 RS_GRID|   Bounds   1            -67      67                Points:         135
 RS_GRID|   Bounds   2            -67      67                Points:         135
 RS_GRID|   Bounds   3            -67      67                Points:         135
 RS_GRID| Real space fully replicated
 RS_GRID| Group size                                                           1

 RS_GRID| Information for grid number                                          4
 RS_GRID|   Bounds   1            -40      39                Points:          80
 RS_GRID|   Bounds   2            -40      39                Points:          80
 RS_GRID|   Bounds   3            -40      39                Points:          80
 RS_GRID| Real space fully replicated
 RS_GRID| Group size                                                           1

  HFX_INFO| Replica ID:                                                        1
  HFX_INFO| FRACTION:                                               0.2500000000
  HFX_INFO| Interaction Potential:                                       COULOMB
  HFX_INFO| EPS_SCHWARZ:                                                 1.0E-10
  HFX_INFO| EPS_SCHWARZ_FORCES                                           1.0E-08
  HFX_INFO| EPS_STORAGE_SCALING:                                         1.0E+00
  HFX_INFO| NBINS:                                                            64
  HFX_INFO| BLOCK_SIZE:                                                        1
  HFX_INFO| Number of periodic shells considered:                           NONE
  HFX_INFO| Number of periodic cells considered:                            NONE

 
 RI-RPA| using GPW style
 

 OVERLAP MATRIX CONDITION NUMBER
 1-Norm Condition Number (Estimate)
   CN : |A|*|A^-1|:  2.814E+001 *  1.746E+004   = 4.915E+005  Log(1-CN):  5.6915
 1-Norm and 2-Norm Condition Numbers using Diagonalization
   CN : |A|*|A^-1|:  2.814E+001 *  1.904E+004   = 5.359E+005  Log(1-CN):  5.7291
   CN : max/min ev:  1.152E+001 /  1.354E-004   = 8.507E+004  Log(2-CN):  4.9298

 Number of electrons:                                                         90
 Number of occupied orbitals:                                                 45
 Number of molecular orbitals:                                               206

 Number of orbital functions:                                                206
 Number of independent orbital functions:                                    206

 Extrapolation method: initial_guess

 Atomic guess: The first density matrix is obtained in terms of atomic orbitals
               and electronic configurations assigned to each atomic kind

 Guess for atomic kind: O

 Electronic structure
    Total number of core electrons                                          0.00
    Total number of valence electrons                                       8.00
    Total number of electrons                                               8.00
    Multiplicity                                                   not specified
    S      2.00  2.00
    P      4.00


 *******************************************************************************
                  Iteration          Convergence                     Energy [au]
 *******************************************************************************
                          1        0.735249                     -74.156692399509
                          2        0.374970                     -74.229519281434
                          3        0.137476E-02                 -74.265323889138
                          4        0.125117E-03                 -74.265324305080
                          5        0.240576E-05                 -74.265324309459
                          6        0.135447E-05                 -74.265324309460
                          7        0.538171E-07                 -74.265324309461

 Energy components [Hartree]           Total Energy ::          -74.265324309461
                                        Band Energy ::          -41.262202594008
                                     Kinetic Energy ::           72.991524336317
                                   Potential Energy ::         -147.256848645778
                                      Virial (-V/T) ::            2.017451340888
                                        Core Energy ::         -102.038650666845
                                          XC Energy ::           -7.668930692176
                                     Coulomb Energy ::           35.442257049561

 Orbital energies  State     L     Occupation   Energy[a.u.]          Energy[eV]

                       1     0          2.000     -18.982629         -516.543598
                       2     0          2.000      -0.922184          -25.093913

                       1     1          4.000      -0.363144           -9.881653


 Total Electron Density at R=0:                                       265.214148

 Guess for atomic kind: H

 Electronic structure
    Total number of core electrons                                          0.00
    Total number of valence electrons                                       1.00
    Total number of electrons                                               1.00
    Multiplicity                                                   not specified
    S      1.00


 *******************************************************************************
                  Iteration          Convergence                     Energy [au]
 *******************************************************************************
                          1        0.962691E-02                  -0.444368661081
                          2        0.109107E-02                  -0.444473520424
                          3        0.117094E-03                  -0.444476577889
                          4        0.851579E-07                  -0.444476596085

 Energy components [Hartree]           Total Energy ::           -0.444476596085
                                        Band Energy ::           -0.233451424826
                                     Kinetic Energy ::            0.431260327433
                                   Potential Energy ::           -0.875736923518
                                      Virial (-V/T) ::            2.030645686170
                                        Core Energy ::           -0.494218917327
                                          XC Energy ::           -0.231476335377
                                     Coulomb Energy ::            0.281218656618

 Orbital energies  State     L     Occupation   Energy[a.u.]          Energy[eV]

                       1     0          1.000      -0.233451           -6.352536


 Total Electron Density at R=0:                                         0.270947

 Guess for atomic kind: C

 Electronic structure
    Total number of core electrons                                          0.00
    Total number of valence electrons                                       6.00
    Total number of electrons                                               6.00
    Multiplicity                                                   not specified
    S      2.00  2.00
    P      2.00


 *******************************************************************************
                  Iteration          Convergence                     Energy [au]
 *******************************************************************************
                          1        0.181972E-01                 -37.327047058214
                          2        0.113690E-01                 -37.327375013153
                          3        0.204442E-03                 -37.327563854518
                          4        0.318580E-06                 -37.327563914839

 Energy components [Hartree]           Total Energy ::          -37.327563914839
                                        Band Energy ::          -20.907151793925
                                     Kinetic Energy ::           37.918401132701
                                   Potential Energy ::          -75.245965047540
                                      Virial (-V/T) ::            1.984418192745
                                        Core Energy ::          -50.466619839572
                                          XC Energy ::           -4.803795746723
                                     Coulomb Energy ::           17.942851671456

 Orbital energies  State     L     Occupation   Energy[a.u.]          Energy[eV]

                       1     0          2.000      -9.826687         -267.397747
                       2     0          2.000      -0.471401          -12.827469

                       1     1          2.000      -0.155488           -4.231050


 Total Electron Density at R=0:                                       107.717880

 Guess for atomic kind: N

 Electronic structure
    Total number of core electrons                                          0.00
    Total number of valence electrons                                       7.00
    Total number of electrons                                               7.00
    Multiplicity                                                   not specified
    S      2.00  2.00
    P      3.00


 *******************************************************************************
                  Iteration          Convergence                     Energy [au]
 *******************************************************************************
                          1        0.325929                     -53.884153266199
                          2        0.157204                     -53.911997171341
                          3        0.119206E-02                 -53.921312470162
                          4        0.146154E-04                 -53.921312958938
                          5        0.703430E-05                 -53.921312958993
                          6        0.461880E-05                 -53.921312959002
                          7        0.894721E-08                 -53.921312959009

 Energy components [Hartree]           Total Energy ::          -53.921312959009
                                        Band Energy ::          -30.455902305516
                                     Kinetic Energy ::           53.519410139912
                                   Potential Energy ::         -107.440723098921
                                      Virial (-V/T) ::            2.007509477740
                                        Core Energy ::          -73.216670532427
                                          XC Energy ::           -6.109461717977
                                     Coulomb Energy ::           25.404819291395

 Orbital energies  State     L     Occupation   Energy[a.u.]          Energy[eV]

                       1     0          2.000     -14.102420         -383.746365
                       2     0          2.000      -0.702220          -19.108372

                       1     1          3.000      -0.282208           -7.679258


 Total Electron Density at R=0:                                       175.030911

 Guess for atomic kind: F

 Electronic structure
    Total number of core electrons                                          0.00
    Total number of valence electrons                                       9.00
    Total number of electrons                                               9.00
    Multiplicity                                                   not specified
    S      2.00  2.00
    P      5.00


 *******************************************************************************
                  Iteration          Convergence                     Energy [au]
 *******************************************************************************
                          1         1.59676                     -98.412206259965
                          2        0.803843                     -98.593095558434
                          3        0.238425E-01                 -98.730680910936
                          4        0.226163E-02                 -98.730798474468
                          5        0.209451E-03                 -98.730799549249
                          6        0.390383E-07                 -98.730799558625

 Energy components [Hartree]           Total Energy ::          -98.730799558625
                                        Band Energy ::          -53.707187921848
                                     Kinetic Energy ::           96.266505882880
                                   Potential Energy ::         -194.997305441505
                                      Virial (-V/T) ::            2.025598661270
                                        Core Energy ::         -137.316310583207
                                          XC Energy ::           -9.449139733381
                                     Coulomb Energy ::           48.034650757964

 Orbital energies  State     L     Occupation   Energy[a.u.]          Energy[eV]

                       1     0          2.000     -24.570242         -668.590281
                       2     0          2.000      -1.163649          -31.664487

                       1     1          5.000      -0.447881          -12.187474


 Total Electron Density at R=0:                                       382.328591
 Re-scaling the density matrix to get the right number of electrons
                  # Electrons              Trace(P)               Scaling factor
                           90                90.000                        1.000


 SCF WAVEFUNCTION OPTIMIZATION

  Step     Update method      Time    Convergence         Total energy    Change
  ------------------------------------------------------------------------------

  HFX_MEM_INFO| Est. max. program size before HFX [MiB]:                     914
  HFX_MEM_INFO| Number of cart. primitive ERI's calculated:          94042130353
  HFX_MEM_INFO| Number of sph. ERI's calculated:                       252042402
  HFX_MEM_INFO| Number of sph. ERI's stored in-core:                   252042402
  HFX_MEM_INFO| Number of sph. ERI's stored on disk:                           0
  HFX_MEM_INFO| Number of sph. ERI's calculated on the fly:                    0
  HFX_MEM_INFO| Total memory consumption ERI's RAM [MiB]:                    594
  HFX_MEM_INFO| Whereof max-vals [MiB]:                                        6
  HFX_MEM_INFO| Total compression factor ERI's RAM:                         3.24
  HFX_MEM_INFO| Total memory consumption ERI's disk [MiB]:                     0
  HFX_MEM_INFO| Total compression factor ERI's disk:                        0.00
  HFX_MEM_INFO| Size of density/Fock matrix [MiB]:                             0
  HFX_MEM_INFO| Size of buffers [MiB]:                                         0
  HFX_MEM_INFO| Est. max. program size after HFX  [MiB]:                    1349

     1 NoMix/Diag. 0.10E+00    8.5     3.04254751      -648.8258509684 -6.49E+02
     2 Broy./Diag. 0.10E+00    1.6     0.13679759      -640.7365427623  8.09E+00
     3 Broy./Diag. 0.10E+00    1.4     0.10268914      -640.7779515696 -4.14E-02
     4 Broy./Diag. 0.10E+00    1.4     0.45225788      -642.7228504596 -1.94E+00
     5 Broy./Diag. 0.10E+00    1.4     0.19055756      -645.6604500709 -2.94E+00
     6 Broy./Diag. 0.10E+00    1.4     0.04377794      -646.5424705069 -8.82E-01
     7 Broy./Diag. 0.10E+00    1.4     0.04705921      -646.4844928921  5.80E-02
     8 Broy./Diag. 0.10E+00    1.5     0.04848656      -646.0810815437  4.03E-01
     9 Broy./Diag. 0.10E+00    1.5     0.01253351      -645.9046861833  1.76E-01
    10 Broy./Diag. 0.10E+00    1.5     0.07668996      -646.1698243944 -2.65E-01
    11 Broy./Diag. 0.10E+00    1.4     0.05669613      -646.6111692570 -4.41E-01
    12 Broy./Diag. 0.10E+00    1.4     0.01191726      -646.8327615559 -2.22E-01
    13 Broy./Diag. 0.10E+00    1.4     0.00979972      -646.8534223193 -2.07E-02
    14 Broy./Diag. 0.10E+00    1.4     0.04100979      -646.9598610372 -1.06E-01
    15 Broy./Diag. 0.10E+00    1.4     0.02305658      -647.0385732982 -7.87E-02
    16 Broy./Diag. 0.10E+00    1.4     0.03776228      -646.9508984886  8.77E-02
    17 Broy./Diag. 0.10E+00    1.5     0.01136194      -646.8883510879  6.25E-02
    18 Broy./Diag. 0.10E+00    1.5     0.02277933      -646.8681941477  2.02E-02
    19 Broy./Diag. 0.10E+00    1.5     0.01217502      -646.8788762705 -1.07E-02
    20 Broy./Diag. 0.10E+00    1.4     0.03540786      -646.7167407331  1.62E-01
    21 Broy./Diag. 0.10E+00    1.4     0.10003521      -646.2390822889  4.78E-01
    22 Broy./Diag. 0.10E+00    1.5     0.03917911      -645.8200596446  4.19E-01
    23 Broy./Diag. 0.10E+00    1.4     0.05270881      -645.9493043746 -1.29E-01
    24 Broy./Diag. 0.10E+00    1.5     0.01465435      -646.1184766721 -1.69E-01
    25 Broy./Diag. 0.10E+00    1.5     0.07567699      -645.9714989543  1.47E-01
    26 Broy./Diag. 0.10E+00    1.5     0.07094561      -645.8098340229  1.62E-01
    27 Broy./Diag. 0.10E+00    1.5     0.05143342      -645.9808962349 -1.71E-01
    28 Broy./Diag. 0.10E+00    1.5     0.01520197      -646.1175178268 -1.37E-01
    29 Broy./Diag. 0.10E+00    1.4     0.01938585      -646.0605037916  5.70E-02
    30 Broy./Diag. 0.10E+00    1.5     0.02122711      -646.0155027805  4.50E-02
    31 Broy./Diag. 0.10E+00    1.5     0.01608659      -646.0300592580 -1.46E-02
    32 Broy./Diag. 0.10E+00    1.4     0.01571987      -646.0586499473 -2.86E-02
    33 Broy./Diag. 0.10E+00    1.4     0.00441918      -646.0821884696 -2.35E-02
    34 Broy./Diag. 0.10E+00    1.5     0.00671804      -646.0741900752  8.00E-03
    35 Broy./Diag. 0.10E+00    1.5     0.01251996      -646.0448340829  2.94E-02
    36 Broy./Diag. 0.10E+00    1.4     0.00779445      -646.0291560966  1.57E-02
    37 Broy./Diag. 0.10E+00    1.4     0.01294662      -646.0277554323  1.40E-03
    38 Broy./Diag. 0.10E+00    1.4     0.00676956      -646.0349094632 -7.15E-03
    39 Broy./Diag. 0.10E+00    1.5     0.00594915      -646.0518470983 -1.69E-02
    40 Broy./Diag. 0.10E+00    1.4     0.00672831      -646.0656508182 -1.38E-02
    41 Broy./Diag. 0.10E+00    1.5     0.00379809      -646.0698319672 -4.18E-03
    42 Broy./Diag. 0.10E+00    1.5     0.00266825      -646.0770072900 -7.18E-03
    43 Broy./Diag. 0.10E+00    1.5     0.00225364      -646.0786481782 -1.64E-03
    44 Broy./Diag. 0.10E+00    1.6     0.00453869      -646.0733918816  5.26E-03
    45 Broy./Diag. 0.10E+00    1.6     0.00210677      -646.0804536368 -7.06E-03
    46 Broy./Diag. 0.10E+00    1.6     0.00311976      -646.0822998613 -1.85E-03
    47 Broy./Diag. 0.10E+00    1.5     0.00223313      -646.0758085779  6.49E-03
    48 Broy./Diag. 0.10E+00    1.5     0.00059208      -646.0745588987  1.25E-03
    49 Broy./Diag. 0.10E+00    1.6     0.00188040      -646.0736139557  9.45E-04
    50 Broy./Diag. 0.10E+00    1.5     0.00189244      -646.0693542663  4.26E-03
    51 Broy./Diag. 0.10E+00    1.5     0.00067826      -646.0666737115  2.68E-03
    52 Broy./Diag. 0.10E+00    1.5     0.00067459      -646.0654540044  1.22E-03
    53 Broy./Diag. 0.10E+00    1.5     0.00106679      -646.0655583649 -1.04E-04
    54 Broy./Diag. 0.10E+00    1.4     0.00080900      -646.0668650385 -1.31E-03
    55 Broy./Diag. 0.10E+00    1.5     0.00027437      -646.0654895099  1.38E-03
    56 Broy./Diag. 0.10E+00    1.4     0.00048224      -646.0659409784 -4.51E-04
    57 Broy./Diag. 0.10E+00    1.5     0.00055701      -646.0669181303 -9.77E-04
    58 Broy./Diag. 0.10E+00    1.6     0.00024059      -646.0659348260  9.83E-04
    59 Broy./Diag. 0.10E+00    1.5     0.00027185      -646.0653599777  5.75E-04
    60 Broy./Diag. 0.10E+00    1.4     0.00031686      -646.0654300620 -7.01E-05
    61 Broy./Diag. 0.10E+00    1.4     0.00009457      -646.0649885788  4.41E-04
    62 Broy./Diag. 0.10E+00    1.5     0.00036812      -646.0648065811  1.82E-04
    63 Broy./Diag. 0.10E+00    1.5     0.00018067      -646.0651269517 -3.20E-04
    64 Broy./Diag. 0.10E+00    1.5     0.00008161      -646.0650792296  4.77E-05
    65 Broy./Diag. 0.10E+00    1.5     0.00020160      -646.0650084083  7.08E-05
    66 Broy./Diag. 0.10E+00    1.5     0.00013252      -646.0649670980  4.13E-05
    67 Broy./Diag. 0.10E+00    1.5     0.00008819      -646.0649466415  2.05E-05
    68 Broy./Diag. 0.10E+00    1.5     0.00008270      -646.0649756263 -2.90E-05
    69 Broy./Diag. 0.10E+00    1.5     0.00012987      -646.0648615324  1.14E-04
    70 Broy./Diag. 0.10E+00    1.5     0.00010070      -646.0646609971  2.01E-04
    71 Broy./Diag. 0.10E+00    1.4     0.00009632      -646.0646239388  3.71E-05
    72 Broy./Diag. 0.10E+00    1.4     0.00013466      -646.0646242123 -2.74E-07
    73 Broy./Diag. 0.10E+00    1.5     0.00004607      -646.0646234164  7.96E-07
    74 Broy./Diag. 0.10E+00    1.5     0.00002567      -646.0646886244 -6.52E-05
    75 Broy./Diag. 0.10E+00    1.4     0.00004194      -646.0647221171 -3.35E-05
    76 Broy./Diag. 0.10E+00    1.5     0.00000621      -646.0646892407  3.29E-05
    77 Broy./Diag. 0.10E+00    1.5     0.00004180      -646.0646752256  1.40E-05
    78 Broy./Diag. 0.10E+00    1.4     0.00002018      -646.0647113669 -3.61E-05
    79 Broy./Diag. 0.10E+00    1.4     0.00001354      -646.0646906935  2.07E-05
    80 Broy./Diag. 0.10E+00    1.4     0.00003377      -646.0646772787  1.34E-05
    81 Broy./Diag. 0.10E+00    1.5     0.00002544      -646.0646734240  3.85E-06
    82 Broy./Diag. 0.10E+00    1.5     0.00000595      -646.0646735531 -1.29E-07
    83 Broy./Diag. 0.10E+00    1.5     0.00001283      -646.0646858030 -1.22E-05
    84 Broy./Diag. 0.10E+00    1.4     0.00000586      -646.0647010944 -1.53E-05
    85 Broy./Diag. 0.10E+00    1.5     0.00000227      -646.0646952541  5.84E-06
    86 Broy./Diag. 0.10E+00    1.4     0.00000539      -646.0646891201  6.13E-06
    87 Broy./Diag. 0.10E+00    1.5     0.00000224      -646.0646851863  3.93E-06
    88 Broy./Diag. 0.10E+00    1.4     0.00000112      -646.0646807437  4.44E-06
    89 Broy./Diag. 0.10E+00    1.5     0.00000768      -646.0646804065  3.37E-07
    90 Broy./Diag. 0.10E+00    1.5     0.00000500      -646.0646791089  1.30E-06
    91 Broy./Diag. 0.10E+00    1.5     0.00000117      -646.0646727855  6.32E-06
    92 Broy./Diag. 0.10E+00    1.5     0.00000270      -646.0646728321 -4.66E-08
    93 Broy./Diag. 0.10E+00    1.5     0.00000196      -646.0646762194 -3.39E-06
    94 Broy./Diag. 0.10E+00    1.5     0.00000205      -646.0646747966  1.42E-06
    95 Broy./Diag. 0.10E+00    1.5     0.00000070      -646.0646744819  3.15E-07

  *** SCF run converged in    95 steps ***


  Electronic density on regular grids:        -66.4058902643       23.5941097357
  Core density on regular grids:               90.0000000000       -0.0000000000
  Hard and soft densities (Lebedev):         -432.7089528639     -409.1148431397
  Total Rho_soft + Rho1_hard - Rho1_soft      -89.9999999885
  Total charge density (r-space):               0.0000000115
  Total Rho_soft + Rho0_soft (g-space):        -0.0000001987

  Overlap energy of the core charge distribution:               0.00000902530043
  Self energy of the core charge distribution:               -579.74263175535134
  Core Hamiltonian energy:                                    -83.40905582142167
  Hartree energy:                                             195.45967926802510
  Exchange-correlation energy:                                -25.10635016969671
  Hartree-Fock Exchange energy:                               -19.99448807616733

  GAPW| Exc from hard and soft atomic rho1:                   -37.67652121770956
  GAPW| local Eh = 1 center integrals:                        -95.59531573486629

  Total energy:                                              -646.06467448188755

 !-----------------------------------------------------------------------------!
                     Mulliken Population Analysis

 #  Atom  Element  Kind  Atomic population                           Net charge
       1     O        1          8.828704                             -0.828704
       2     H        2          0.214717                              0.785283
       3     C        3          5.900976                              0.099024
       4     H        2          0.817822                              0.182178
       5     N        4          7.813476                             -0.813476
       6     H        2          0.430846                              0.569154
       7     C        3          6.023060                             -0.023060
       8     H        2          0.774268                              0.225732
       9     H        2          1.145212                             -0.145212
      10     C        3          5.723747                              0.276253
      11     C        3          5.584975                              0.415025
      12     F        5          9.195013                             -0.195013
      13     C        3          5.665248                              0.334752
      14     C        3          5.922195                              0.077805
      15     H        2          0.724209                              0.275791
      16     N        4          7.884007                             -0.884007
      17     H        2          0.542640                              0.457360
      18     H        2          0.795633                              0.204367
      19     N        4          7.469854                             -0.469854
      20     O        1          8.543400                             -0.543400
 # Total charge                             90.000000                 -0.000000

 !-----------------------------------------------------------------------------!

 !-----------------------------------------------------------------------------!
                           Hirshfeld Charges

  #Atom  Element  Kind  Ref Charge     Population                    Net charge
      1       O      1       8.000          8.722                        -0.722
      2       H      2       1.000          0.387                         0.613
      3       C      3       6.000          6.426                        -0.426
      4       H      2       1.000          0.494                         0.506
      5       N      4       7.000          7.561                        -0.561
      6       H      2       1.000          0.420                         0.580
      7       C      3       6.000          6.856                        -0.856
      8       H      2       1.000          0.513                         0.487
      9       H      2       1.000          0.515                         0.485
     10       C      3       6.000          5.943                         0.057
     11       C      3       6.000          5.547                         0.453
     12       F      5       9.000          9.294                        -0.294
     13       C      3       6.000          5.577                         0.423
     14       C      3       6.000          6.291                        -0.291
     15       H      2       1.000          0.516                         0.484
     16       N      4       7.000          8.120                        -1.120
     17       H      2       1.000          0.444                         0.556
     18       H      2       1.000          0.440                         0.560
     19       N      4       7.000          7.404                        -0.404
     20       O      1       8.000          8.498                        -0.498

  Total Charge                                                            0.030
 !-----------------------------------------------------------------------------!


 RI-RPA section
 --------------

  Used number of processes per group:                                          1
  Maximum allowed memory usage per MPI process:                      1024.00 MiB
  RI_INFO| Cholesky decomposition group size:                                 24
  RI_INFO| Number of groups for auxiliary basis functions                    192

  RI_INFO| RI metric:                                                    COULOMB
  RI_INFO| Number of auxiliary basis functions:                              582
  GENERAL_INFO| Number of basis functions:                                   206
  GENERAL_INFO| Number of occupied orbitals:                                  45
  GENERAL_INFO| Number of virtual orbitals:                                  161
  RI_INFO| Total memory for (ia|K) integrals:                          32.17 MiB
  RI_INFO| Total memory for G0W0-(nm|K) integrals:                    188.43 MiB
  RI_INFO| Total memory for (ij|K) integrals:                           8.99 MiB
  RI_INFO| Total memory for (ab|K) integrals:                         115.10 MiB
  RI_INFO| Group size for frequency integration:                             192
  INTEG_INFO| Clenshaw-Curtius quadrature
  INTEG_INFO| Number of integration points:                                  100
  INTEG_INFO| Number of integration points per RPA group:                    100
  MATRIX_INFO| Number row processes:                                           4
  MATRIX_INFO| Number column processes:                                       48
  MATRIX_INFO| Row block size:                                                72
  MATRIX_INFO| Column block size:                                             75
  INTEG_INFO| Scaling parameter:                                         0.20000
  INTEG_INFO| Started with Integration point   1 of 100
  INTEG_INFO| Started with Integration point   2 of 100
  INTEG_INFO| Started with Integration point   3 of 100
  INTEG_INFO| Started with Integration point   4 of 100
  INTEG_INFO| Started with Integration point   5 of 100
  INTEG_INFO| Started with Integration point   6 of 100
  INTEG_INFO| Started with Integration point   7 of 100
  INTEG_INFO| Started with Integration point   8 of 100
  INTEG_INFO| Started with Integration point   9 of 100
  INTEG_INFO| Started with Integration point  10 of 100
  INTEG_INFO| Started with Integration point  11 of 100
  INTEG_INFO| Started with Integration point  12 of 100
  INTEG_INFO| Started with Integration point  13 of 100
  INTEG_INFO| Started with Integration point  14 of 100
  INTEG_INFO| Started with Integration point  15 of 100
  INTEG_INFO| Started with Integration point  16 of 100
  INTEG_INFO| Started with Integration point  17 of 100
  INTEG_INFO| Started with Integration point  18 of 100
  INTEG_INFO| Started with Integration point  19 of 100
  INTEG_INFO| Started with Integration point  20 of 100
  INTEG_INFO| Started with Integration point  21 of 100
  INTEG_INFO| Started with Integration point  22 of 100
  INTEG_INFO| Started with Integration point  23 of 100
  INTEG_INFO| Started with Integration point  24 of 100
  INTEG_INFO| Started with Integration point  25 of 100
  INTEG_INFO| Started with Integration point  26 of 100
  INTEG_INFO| Started with Integration point  27 of 100
  INTEG_INFO| Started with Integration point  28 of 100
  INTEG_INFO| Started with Integration point  29 of 100
  INTEG_INFO| Started with Integration point  30 of 100
  INTEG_INFO| Started with Integration point  31 of 100
  INTEG_INFO| Started with Integration point  32 of 100
  INTEG_INFO| Started with Integration point  33 of 100
  INTEG_INFO| Started with Integration point  34 of 100
  INTEG_INFO| Started with Integration point  35 of 100
  INTEG_INFO| Started with Integration point  36 of 100
  INTEG_INFO| Started with Integration point  37 of 100
  INTEG_INFO| Started with Integration point  38 of 100
  INTEG_INFO| Started with Integration point  39 of 100
  INTEG_INFO| Started with Integration point  40 of 100
  INTEG_INFO| Started with Integration point  41 of 100
  INTEG_INFO| Started with Integration point  42 of 100
  INTEG_INFO| Started with Integration point  43 of 100
  INTEG_INFO| Started with Integration point  44 of 100
  INTEG_INFO| Started with Integration point  45 of 100
  INTEG_INFO| Started with Integration point  46 of 100
  INTEG_INFO| Started with Integration point  47 of 100
  INTEG_INFO| Started with Integration point  48 of 100
  INTEG_INFO| Started with Integration point  49 of 100
  INTEG_INFO| Started with Integration point  50 of 100
  INTEG_INFO| Started with Integration point  51 of 100
  INTEG_INFO| Started with Integration point  52 of 100
  INTEG_INFO| Started with Integration point  53 of 100
  INTEG_INFO| Started with Integration point  54 of 100
  INTEG_INFO| Started with Integration point  55 of 100
  INTEG_INFO| Started with Integration point  56 of 100
  INTEG_INFO| Started with Integration point  57 of 100
  INTEG_INFO| Started with Integration point  58 of 100
  INTEG_INFO| Started with Integration point  59 of 100
  INTEG_INFO| Started with Integration point  60 of 100
  INTEG_INFO| Started with Integration point  61 of 100
  INTEG_INFO| Started with Integration point  62 of 100
  INTEG_INFO| Started with Integration point  63 of 100
  INTEG_INFO| Started with Integration point  64 of 100
  INTEG_INFO| Started with Integration point  65 of 100
  INTEG_INFO| Started with Integration point  66 of 100
  INTEG_INFO| Started with Integration point  67 of 100
  INTEG_INFO| Started with Integration point  68 of 100
  INTEG_INFO| Started with Integration point  69 of 100
  INTEG_INFO| Started with Integration point  70 of 100
  INTEG_INFO| Started with Integration point  71 of 100
  INTEG_INFO| Started with Integration point  72 of 100
  INTEG_INFO| Started with Integration point  73 of 100
  INTEG_INFO| Started with Integration point  74 of 100
  INTEG_INFO| Started with Integration point  75 of 100
  INTEG_INFO| Started with Integration point  76 of 100
  INTEG_INFO| Started with Integration point  77 of 100
  INTEG_INFO| Started with Integration point  78 of 100
  INTEG_INFO| Started with Integration point  79 of 100
  INTEG_INFO| Started with Integration point  80 of 100
  INTEG_INFO| Started with Integration point  81 of 100
  INTEG_INFO| Started with Integration point  82 of 100
  INTEG_INFO| Started with Integration point  83 of 100
  INTEG_INFO| Started with Integration point  84 of 100
  INTEG_INFO| Started with Integration point  85 of 100
  INTEG_INFO| Started with Integration point  86 of 100
  INTEG_INFO| Started with Integration point  87 of 100
  INTEG_INFO| Started with Integration point  88 of 100
  INTEG_INFO| Started with Integration point  89 of 100
  INTEG_INFO| Started with Integration point  90 of 100
  INTEG_INFO| Started with Integration point  91 of 100
  INTEG_INFO| Started with Integration point  92 of 100
  INTEG_INFO| Started with Integration point  93 of 100
  INTEG_INFO| Started with Integration point  94 of 100
  INTEG_INFO| Started with Integration point  95 of 100
  INTEG_INFO| Started with Integration point  96 of 100
  INTEG_INFO| Started with Integration point  97 of 100
  INTEG_INFO| Started with Integration point  98 of 100
  INTEG_INFO| Started with Integration point  99 of 100
  INTEG_INFO| Started with Integration point 100 of 100
  PERFORMANCE| Average DGEMM flop rate (Gflops / MPI rank):                 6.22
  
  
  ******************************************************************************
  **                                                                          **
  **                        GW QUASIPARTICLE ENERGIES                         **
  **                                                                          **
  ******************************************************************************
   
   
  The GW quasiparticle energies are calculated according to: 
   
                      E_GW = E_SCF + Sigc(E_GW) + Sigx - vxc 
   
  Upper equation is solved self-consistently for E_GW, see Eq. (12) in J. Phys.
  Chem. Lett. 9, 306 (2018), doi: 10.1021/acs.jpclett.7b02740
  
  
  ------------
  G0W0 results
  ------------
   
  Molecular orbital   E_SCF (eV)       Sigc (eV)   Sigx-vxc (eV)       E_GW (eV)
     1 ( occ )         -684.5149         -2.1605        -41.3228       -727.9983
     2 ( occ )         -529.7815         -2.3887        -36.5730       -568.7433
     3 ( occ )         -528.9828         -1.4081        -36.5645       -566.9553
     4 ( occ )         -396.1435         -2.8154        -31.5050       -430.4639
     5 ( occ )         -394.1286         -2.4779        -31.5265       -428.1331
     6 ( occ )         -392.3807         -3.0975        -31.5444       -427.0225
     7 ( occ )         -285.1244         -3.6349        -26.4128       -315.1722
     8 ( occ )         -284.6596         -3.0618        -26.4515       -314.1729
     9 ( occ )         -281.2338         -9.0010        -26.4485       -316.6833
    10 ( occ )         -281.2105         -4.6259        -26.4314       -312.2678
    11 ( occ )         -281.2021         -9.3890        -26.4172       -317.0082
    12 ( occ )         -279.9848        -10.7541        -26.4380       -317.1769
    13 ( occ )          -37.1036          7.9799        -10.1833        -39.3070
    14 ( occ )          -32.7195          5.8044         -8.5318        -35.4469
    15 ( occ )          -30.2675          6.3437         -8.2516        -32.1754
    16 ( occ )          -29.8983          6.3634         -7.6314        -31.1662
    17 ( occ )          -26.0846          5.7093         -7.0335        -27.4088
    18 ( occ )          -25.3543          5.7490         -7.1225        -26.7278
    19 ( occ )          -22.6815          5.1210         -6.3660        -23.9265
    20 ( occ )          -21.3109          4.5699         -5.9588        -22.6998
    21 ( occ )          -19.8677          4.0585         -5.3852        -21.1944
    22 ( occ )          -18.6371          3.6740         -5.1569        -20.1200
    23 ( occ )          -17.7896          3.3624         -4.8183        -19.2454
    24 ( occ )          -17.3625          3.1497         -4.7567        -18.9694
    25 ( occ )          -16.6215          3.1008         -4.7360        -18.2568
    26 ( occ )          -15.2060          2.9691         -4.5137        -16.7506
    27 ( occ )          -14.9116          3.7772         -5.1007        -16.2352
    28 ( occ )          -14.7932          2.4657         -3.9809        -16.3085
    29 ( occ )          -14.3385          3.7265         -5.2289        -15.8409
    30 ( occ )          -14.1745          3.0690         -4.7577        -15.8631
    31 ( occ )          -13.6461          2.6243         -4.0261        -15.0479
    32 ( occ )          -12.9066          2.7280         -4.3940        -14.5726
    33 ( occ )          -12.7794          2.8742         -4.3179        -14.2231
    34 ( occ )          -12.5645          2.8278         -4.2461        -13.9828
    35 ( occ )          -12.2914          2.4637         -3.9980        -13.8257
    36 ( occ )          -11.9976          2.4244         -3.8314        -13.4045
    37 ( occ )          -11.6477          2.1626         -3.6127        -13.0977
    38 ( occ )          -11.1190          2.2545         -3.6972        -12.5617
    39 ( occ )          -10.6401          1.7183         -3.4361        -12.3579
    40 ( occ )           -9.9655          2.5551         -3.7809        -11.1913
    41 ( occ )           -9.1842          2.4684         -3.6979        -10.4137
    42 ( occ )           -9.0753          1.6224         -2.7781        -10.2310
    43 ( occ )           -8.7586          2.5972         -3.8252         -9.9866
    44 ( occ )           -7.3683          1.2409         -2.5340         -8.6615
    45 ( occ )           -6.8500          1.5121         -2.8243         -8.1622
    46 ( vir )           -0.6815         -1.6911          4.7087          2.3361
    47 ( vir )           -0.1464         -0.7060          2.0667          1.2143
    48 ( vir )            0.0118         -1.2678          3.4563          2.2002
    49 ( vir )            0.1735         -1.0513          3.0965          2.2187
    50 ( vir )            0.6550         -0.7361          2.1895          2.1084
    51 ( vir )            0.7572         -1.4680          3.6259          2.9152
    52 ( vir )            1.0232         -0.9799          2.6166          2.6599
    53 ( vir )            1.2243         -0.9213          2.4285          2.7315
    54 ( vir )            1.4096         -0.8105          2.3055          2.9046
    55 ( vir )            1.7517         -0.7895          2.2624          3.2245
    56 ( vir )            1.9190         -0.6756          2.0125          3.2559
    57 ( vir )            2.0943         -0.6903          2.0906          3.4946
    58 ( vir )            2.4076         -0.7547          2.2045          3.8573
    59 ( vir )            2.5598         -1.0157          2.6591          4.2032
    60 ( vir )            2.7664         -0.5975          1.9889          4.1578
    61 ( vir )            2.8674         -0.5508          1.9381          4.2548
    62 ( vir )            3.0558         -0.7073          2.1210          4.4695
    63 ( vir )            3.4510         -0.7369          2.2286          4.9427
    64 ( vir )            3.7197         -0.7310          2.1358          5.1245
    65 ( vir )            3.8099         -0.7993          2.2610          5.2716
    66 ( vir )            4.0936         -1.0743          2.8294          5.8487
    67 ( vir )            4.1730         -0.8781          2.5015          5.7964
    68 ( vir )            4.3204         -0.9590          2.6004          5.9618
    69 ( vir )            4.5372         -1.2987          3.3002          6.5387
    70 ( vir )            4.6278         -0.7842          2.4566          6.3002
    71 ( vir )            4.9273         -1.1049          3.0948          6.9172
    72 ( vir )            5.1854         -1.0504          2.8496          6.9846
    73 ( vir )            5.2613         -0.9764          2.6518          6.9367
    74 ( vir )            5.3685         -1.2983          3.1014          7.1716
    75 ( vir )            5.4691         -1.1029          2.8533          7.2195
    76 ( vir )            5.6675         -1.3817          3.2460          7.5317
    77 ( vir )            5.7502         -1.3179          3.2649          7.6971
    78 ( vir )            5.9611         -1.2308          3.2848          8.0151
    79 ( vir )            6.0385         -1.5158          3.5438          8.0666
    80 ( vir )            6.3413         -1.3608          3.3950          8.3755
    81 ( vir )            6.4053         -1.1400          2.7999          8.0652
    82 ( vir )            6.4263         -1.0931          2.7867          8.1199
    83 ( vir )            6.7370         -1.4315          3.4513          8.7568
    84 ( vir )            6.8985         -1.4475          3.4489          8.8999
    85 ( vir )            7.0770         -1.4080          3.3920          9.0610
    86 ( vir )            7.2257         -1.1034          2.8735          8.9957
    87 ( vir )            7.3572         -1.1382          2.9357          9.1547
    88 ( vir )            7.6460         -1.6617          3.7720          9.7564
    89 ( vir )            7.7143         -2.1139          4.4027         10.0031
    90 ( vir )            8.2585         -1.3846          3.5254         10.3994
    91 ( vir )            8.5054         -1.7682          3.8306         10.5679
    92 ( vir )            8.6497         -1.8581          3.8751         10.6668
    93 ( vir )            8.7925         -2.1132          4.6305         11.3098
    94 ( vir )            8.9281         -1.3718          3.3199         10.8762
    95 ( vir )            9.2595         -2.0659          4.2897         11.4832
    96 ( vir )            9.5207         -1.3540          3.3271         11.4938
    97 ( vir )            9.9917         -1.7693          3.8787         12.1011
    98 ( vir )           10.4200         -1.6105          3.7610         12.5704
    99 ( vir )           10.8526         -1.5367          3.6112         12.9271
   100 ( vir )           10.9075         -1.2231          3.1972         12.8816
   101 ( vir )           11.5369         -1.9980          4.2747         13.8136
   102 ( vir )           11.7885         -2.6224          5.1188         14.2849
   103 ( vir )           12.2824         -1.8706          4.0752         14.4870
   104 ( vir )           12.4591         -2.5630          4.9197         14.8158
   105 ( vir )           12.8721         -2.3075          4.6399         15.2044
   106 ( vir )           13.0905         -1.9617          4.4945         15.6233
   107 ( vir )           13.4210         -2.2568          4.7053         15.8694
   108 ( vir )           13.7345         -2.7091          5.1935         16.2189
   109 ( vir )           14.1348         -1.6795          4.3779         16.8332
   110 ( vir )           14.3544         -2.0844          4.4936         16.7636
   111 ( vir )           14.7773         -1.9385          4.5532         17.3920
   112 ( vir )           15.2811         -1.9767          4.5005         17.8050
   113 ( vir )           15.4419         -2.0120          4.7658         18.1957
   114 ( vir )           16.3132         -1.9682          4.8465         19.1915
   115 ( vir )           16.3469         -2.0213          4.7049         19.0305
   116 ( vir )           16.8638         -2.3577          5.2636         19.7697
   117 ( vir )           17.4923         -2.0483          4.9624         20.4064
   118 ( vir )           18.3109         -2.2895          5.0894         21.1108
   119 ( vir )           18.4584         -1.6874          4.3821         21.1531
   120 ( vir )           18.6154         -2.4582          5.3773         21.5345
   121 ( vir )           18.8824         -2.4013          5.2525         21.7336
   122 ( vir )           19.2856         -1.8034          4.4091         21.8914
   123 ( vir )           19.6315         -1.9917          4.6711         22.3110
   124 ( vir )           19.8417         -2.2114          4.9546         22.5848
   125 ( vir )           20.4351         -2.3321          5.2087         23.3118
   126 ( vir )           20.6909         -2.3905          5.2795         23.5799
   127 ( vir )           20.8056         -2.3501          5.1164         23.5719
   128 ( vir )           20.9876         -2.4028          5.5076         24.0925
   129 ( vir )           21.6932         -2.2786          5.3559         24.7705
   130 ( vir )           21.7538         -2.3889          5.3882         24.7531
   131 ( vir )           22.0175         -2.5117          5.1337         24.6396
   132 ( vir )           22.4067         -2.4136          5.1841         25.1772
   133 ( vir )           22.9342         -2.3185          5.0439         25.6596
   134 ( vir )           23.1512         -2.6714          5.3784         25.8582
   135 ( vir )           23.5641         -2.4225          5.0976         26.2393
   136 ( vir )           23.9164         -2.7942          5.5320         26.6542
   137 ( vir )           24.3817         -2.9409          5.6945         27.1354
   138 ( vir )           25.0050         -2.3090          5.2205         27.9166
   139 ( vir )           25.0337         -3.0272          5.7452         27.7517
   140 ( vir )           25.4535         -2.8093          5.5041         28.1483
   141 ( vir )           25.6400         -3.0155          5.8254         28.4499
   142 ( vir )           26.1680         -2.6945          5.2654         28.7388
   143 ( vir )           26.2270         -3.0325          5.6833         28.8778
   144 ( vir )           26.5375         -2.6007          5.3793         29.3161
   145 ( vir )           27.1974         -3.1588          5.8246         29.8632
   146 ( vir )           27.2942         -2.6410          5.2748         29.9280
   147 ( vir )           28.2562         -3.0620          5.9030         31.0972
   148 ( vir )           28.3810         -2.8134          5.6199         31.1876
   149 ( vir )           28.6070         -3.3218          5.9646         31.2498
   150 ( vir )           29.2452         -3.1120          5.9316         32.0647
   151 ( vir )           29.7749         -3.2409          5.8213         32.3553
   152 ( vir )           30.0564         -3.5201          6.1754         32.7118
   153 ( vir )           30.6841         -3.2627          6.0002         33.4216
   154 ( vir )           30.8572         -3.5633          6.0478         33.3417
   155 ( vir )           31.0482         -3.7257          6.2433         33.5658
   156 ( vir )           31.8352         -3.5233          6.0276         34.3396
   157 ( vir )           32.1378         -3.2260          5.9743         34.8862
   158 ( vir )           33.0661         -3.1821          6.0132         35.8972
   159 ( vir )           33.2324         -3.2325          5.9240         35.9238
   160 ( vir )           34.5756         -3.1281          5.5948         37.0423
   161 ( vir )           35.3972         -4.0343          6.1500         37.5129
   162 ( vir )           36.0687         -3.8777          6.3774         38.5684
   163 ( vir )           36.7898         -3.4402          6.1538         39.5033
   164 ( vir )           37.4366         -3.5088          6.2750         40.2027
   165 ( vir )           37.8992         -3.6522          6.6944         40.9414
   166 ( vir )           38.4721         -4.2207          6.6394         40.8908
   167 ( vir )           39.0535         -3.5585          6.2047         41.6997
   168 ( vir )           39.7284         -3.8241          6.5025         42.4067
   169 ( vir )           41.6534         -4.8051          6.7015         43.5499
   170 ( vir )           42.4386         -4.3280          6.9116         45.0222
   171 ( vir )           43.3672         -4.2432          7.1740         46.2980
   172 ( vir )           44.3388         -4.6311          7.2913         46.9991
   173 ( vir )           45.8879         -4.0495          6.8496         48.6880
   174 ( vir )           47.0119          0.7956          6.8669         54.6744
   175 ( vir )           47.3101         -3.9477          7.4299         50.7924
   176 ( vir )           49.1290         -2.4251          7.1372         53.8411
   177 ( vir )           50.0966         -6.3061          7.5613         51.3519
   178 ( vir )           51.1991          3.5895          7.5250         62.3136
   179 ( vir )           53.1032          2.4135          7.7203         63.2370
   180 ( vir )           55.8778          2.2407          7.4672         65.5857
   181 ( vir )           57.0831          3.2576          8.0689         68.4096
   182 ( vir )           57.7550          1.4319          7.8138         67.0007
   183 ( vir )           59.3615          2.4679          7.8760         69.7054
   184 ( vir )           60.6765          2.9206          7.9122         71.5093
   185 ( vir )           62.4249          3.1313          8.0839         73.6402
   186 ( vir )           66.7058          3.2583          8.1698         78.1339
   187 ( vir )           67.8187          2.7077          8.4283         78.9546
   188 ( vir )           69.7218          2.0882          8.5227         80.3328
   189 ( vir )           70.4416          2.1463          8.4162         81.0041
   190 ( vir )           73.8211          2.0474          8.0640         83.9326
   191 ( vir )           78.1193          1.9648          9.1717         89.2558
   192 ( vir )           79.2523          2.1856          9.3290         90.7668
   193 ( vir )           81.7959         -1.7157          9.7607         89.8409
   194 ( vir )           82.5876          3.0069          9.9232         95.5178
   195 ( vir )           83.1257          1.4606          8.2376         92.8239
   196 ( vir )           86.3901          1.6581          8.8561         96.9043
   197 ( vir )           87.4369          2.6377         10.4053        100.4800
   198 ( vir )           87.8278          1.6928         10.0380         99.5586
   199 ( vir )           92.2186          1.8087         10.0351        104.0624
   200 ( vir )           92.9404          1.7231          9.6128        104.2763
   201 ( vir )           98.4390          1.4357          9.1306        109.0053
   202 ( vir )           99.1072          1.2631          9.9295        110.2999
   203 ( vir )          104.3528          1.4438         10.6458        116.4423
   204 ( vir )          107.4650          0.9967         10.1054        118.5670
   205 ( vir )          116.3592          1.1410         10.5001        128.0003
   206 ( vir )          118.6727          1.2274         10.5272        130.4273
   
  G0W0 HOMO-LUMO gap (eV)                                                 9.3765
  
  ------------------------------------------------------------------------------
  
 *******************************************************************************
 **                                                                           **
 **           Bethe Salpeter equation (BSE) for excitation energies           **
 **               solved without Tamm-Dancoff approximation (TDA)             **
 **                                                                           **
 *******************************************************************************
  
 BSE| No cutoff given for occupied orbitals
 BSE| No cutoff given for empty orbitals
 BSE| First occupied index                                                     1
 BSE| Last empty index (not MO index!)                                       161
 BSE| Energy of first occupied index [eV]                               -727.998
 BSE| Energy of last empty index [eV]                                    130.427
 BSE| Energy difference of first occupied index to HOMO [eV]             719.836
 BSE| Energy difference of last empty index to LUMO [eV]                 128.091
 BSE| Number of GW-corrected occupied MOs                                     45
 BSE| Number of GW-corrected empty MOs                                       161
 BSE|
 BSE| No truncation of BSE matrices applied
 BSE|
 BSE| Total peak memory estimate from BSE [GB]                         3.911E+00
 BSE| Peak memory estimate per MPI rank from BSE [GB]                      0.020
 BSE|
 BSE| Diagonalizing aux. matrix with size of A. This will take around 0.E+00 s.
 BSE| Diagonalizing C. This will take around 0.E+00 s.
 BSE|
 BSE|
 BSE| **************************************************************************
 BSE| *      Full ("ABBA") Bethe Salpeter equation (BSE) (i.e. without TDA)    *
 BSE| **************************************************************************
 BSE|
 BSE| The excitations are calculated by diagonalizing the BSE without the TDA:
 BSE|
 BSE|                |A B| |X^n|       |1  0| |X^n|
 BSE|                |B A| |Y^n| = Ω^n |0 -1| |Y^n|
 BSE|
 BSE| i.e. in index notation:
 BSE|
 BSE|   sum_jb ( A_ia,jb   X_jb^n + B_ia,jb   Y_jb^n ) = Ω^n X_ia^n
 BSE| - sum_jb ( B_ia,jb   X_jb^n + A_ia,jb   Y_jb^n ) = Ω^n Y_ia^n
 BSE|
 BSE|
 BSE| i,j:       occupied molecular orbitals, i.e. state in          [   1,  45]
 BSE| a,b:       unoccupied molecular orbitals, i.e. state in        [  46, 206]
 BSE| n:         Excitation index
 BSE|
 BSE| A_ia,jb = (ε_a-ε_i) δ_ij δ_ab + α * v_ia,jb - W_ij,ab
 BSE| B_ia,jb = α * v_ia,jb - W_ib,aj
 BSE|
 BSE| prelim Ref.: Eqs. (24-27),(30),(35)
 BSE| in PRB 92,045209 (2015); http://dx.doi.org/10.1103/PhysRevB.92.045209 .
 BSE|
 BSE| The BSE is solved for Ω^n and X_ia^n as a hermitian problem, e.g. Eq.(42)
 BSE| in PRB 92,045209 (2015); http://dx.doi.org/10.1103/PhysRevB.92.045209 .
 BSE|
 BSE| ε_...:                 GW quasiparticle energy
 BSE| δ_...:                 Kronecker delta
 BSE| α:                     spin-dependent factor
 BSE| v_...:                 Electron-hole exchange interaction
 BSE| W_... = 1/ϵ v_...:     Direct interaction screened by 
 BSE|                        dielectric function ϵ(ω=0)
 BSE|
 BSE|
 BSE| The spin-dependent factor is for the requested Singlet is α = 2.0
 BSE|
 BSE| Excitation energies from solving the BSE without the TDA:
 BSE|
 BSE|     Excitation n   Spin Config       TDA/ABBA   Excitation energy Ω^n (eV)
 BSE|                1       Singlet         -ABBA-                       5.0527
 BSE|                2       Singlet         -ABBA-                       5.4102
 BSE|                3       Singlet         -ABBA-                       5.7500
 BSE|                4       Singlet         -ABBA-                       5.8092
 BSE|                5       Singlet         -ABBA-                       6.0655
 BSE|                6       Singlet         -ABBA-                       6.1645
 BSE|                7       Singlet         -ABBA-                       6.3090
 BSE|                8       Singlet         -ABBA-                       6.3749
 BSE|                9       Singlet         -ABBA-                       6.5945
 BSE|               10       Singlet         -ABBA-                       6.6583
 BSE|               11       Singlet         -ABBA-                       6.8288
 BSE|               12       Singlet         -ABBA-                       6.9352
 BSE|               13       Singlet         -ABBA-                       6.9708
 BSE|               14       Singlet         -ABBA-                       7.0225
 BSE|               15       Singlet         -ABBA-                       7.0597
 BSE|               16       Singlet         -ABBA-                       7.0958
 BSE|               17       Singlet         -ABBA-                       7.2655
 BSE|               18       Singlet         -ABBA-                       7.3127
 BSE|               19       Singlet         -ABBA-                       7.3495
 BSE|               20       Singlet         -ABBA-                       7.4272
 BSE|               21       Singlet         -ABBA-                       7.4655
 BSE|               22       Singlet         -ABBA-                       7.4993
 BSE|               23       Singlet         -ABBA-                       7.5557
 BSE|               24       Singlet         -ABBA-                       7.6018
 BSE|               25       Singlet         -ABBA-                       7.7048
 BSE|
 BSE| Single-particle transitions are built up by (de-)excitations,
 BSE| which we denote by
 BSE|
 BSE|              =>        for excitations, i.e. entries of X_ia^n,
 BSE|              <=        for deexcitations, i.e. entries of Y_ia^n.
 BSE|
 BSE| The following single-particle transitions have significant contributions,
 BSE| i.e. |X_ia^n| > 0.100 or |Y_ia^n| > 0.100, respectively :
 BSE|         -- Quick reminder: HOMO i =   45 and LUMO a =   46 --
 BSE|
 BSE| Excitation n           i =>/<=     a      TDA/ABBA       |X_ia^n|/|Y_ia^n|
 BSE|
 BSE|            1          41    =>    46        -ABBA-                  0.2092
 BSE|            1          43    =>    46        -ABBA-                  0.6025
 BSE|            1          43    =>    48        -ABBA-                  0.1561
 BSE|            1          45    =>    46        -ABBA-                  0.1250
 BSE|
 BSE|            2          44    =>    47        -ABBA-                  0.4703
 BSE|            2          45    =>    47        -ABBA-                  0.4914
 BSE|
 BSE|            3          44    =>    46        -ABBA-                  0.2627
 BSE|            3          44    =>    51        -ABBA-                  0.1409
 BSE|            3          45    =>    46        -ABBA-                  0.4845
 BSE|            3          45    =>    48        -ABBA-                  0.2569
 BSE|            3          45    =>    49        -ABBA-                  0.2060
 BSE|
 BSE|            4          44    =>    46        -ABBA-                  0.1381
 BSE|            4          44    =>    48        -ABBA-                  0.2346
 BSE|            4          44    =>    49        -ABBA-                  0.2631
 BSE|            4          44    =>    50        -ABBA-                  0.1343
 BSE|            4          44    =>    51        -ABBA-                  0.1641
 BSE|            4          45    =>    46        -ABBA-                  0.3393
 BSE|            4          45    =>    48        -ABBA-                  0.1510
 BSE|            4          45    =>    49        -ABBA-                  0.2355
 BSE|            4          45    =>    50        -ABBA-                  0.1354
 BSE|            4          45    =>    51        -ABBA-                  0.2000
 BSE|            4          45    =>    52        -ABBA-                  0.1193
 BSE|
 BSE|            5          44    =>    47        -ABBA-                  0.1508
 BSE|            5          44    =>    50        -ABBA-                  0.1087
 BSE|            5          44    =>    52        -ABBA-                  0.2493
 BSE|            5          44    =>    54        -ABBA-                  0.1014
 BSE|            5          45    =>    46        -ABBA-                  0.1067
 BSE|            5          45    =>    47        -ABBA-                  0.1565
 BSE|            5          45    =>    48        -ABBA-                  0.3426
 BSE|            5          45    =>    50        -ABBA-                  0.2353
 BSE|            5          45    =>    51        -ABBA-                  0.1125
 BSE|            5          45    =>    52        -ABBA-                  0.1138
 BSE|            5          45    =>    53        -ABBA-                  0.1118
 BSE|            5          45    =>    54        -ABBA-                  0.2855
 BSE|            5          45    =>    56        -ABBA-                  0.1121
 BSE|
 BSE|            6          44    =>    46        -ABBA-                  0.1162
 BSE|            6          44    =>    47        -ABBA-                  0.1335
 BSE|            6          44    =>    48        -ABBA-                  0.2459
 BSE|            6          44    =>    50        -ABBA-                  0.1678
 BSE|            6          44    =>    54        -ABBA-                  0.2115
 BSE|            6          45    =>    48        -ABBA-                  0.1239
 BSE|            6          45    =>    49        -ABBA-                  0.1155
 BSE|            6          45    =>    50        -ABBA-                  0.1232
 BSE|            6          45    =>    52        -ABBA-                  0.4034
 BSE|            6          45    =>    54        -ABBA-                  0.1855
 BSE|
 BSE|            7          41    =>    48        -ABBA-                  0.1387
 BSE|            7          41    =>    49        -ABBA-                  0.1274
 BSE|            7          44    =>    48        -ABBA-                  0.1646
 BSE|            7          44    =>    50        -ABBA-                  0.1056
 BSE|            7          44    =>    51        -ABBA-                  0.2241
 BSE|            7          44    =>    52        -ABBA-                  0.1947
 BSE|            7          44    =>    53        -ABBA-                  0.1054
 BSE|            7          44    =>    54        -ABBA-                  0.1532
 BSE|            7          44    =>    55        -ABBA-                  0.1429
 BSE|            7          45    =>    48        -ABBA-                  0.1198
 BSE|            7          45    =>    51        -ABBA-                  0.2798
 BSE|            7          45    =>    52        -ABBA-                  0.1467
 BSE|            7          45    =>    53        -ABBA-                  0.1676
 BSE|            7          45    =>    54        -ABBA-                  0.1899
 BSE|            7          45    =>    55        -ABBA-                  0.1117
 BSE|
 BSE|            8          41    =>    48        -ABBA-                  0.3035
 BSE|            8          41    =>    49        -ABBA-                  0.2967
 BSE|            8          41    =>    51        -ABBA-                  0.1676
 BSE|            8          42    =>    48        -ABBA-                  0.1773
 BSE|            8          42    =>    49        -ABBA-                  0.1631
 BSE|            8          43    =>    48        -ABBA-                  0.1089
 BSE|            8          44    =>    48        -ABBA-                  0.1685
 BSE|            8          44    =>    49        -ABBA-                  0.1572
 BSE|            8          44    =>    51        -ABBA-                  0.1415
 BSE|            8          45    =>    48        -ABBA-                  0.1133
 BSE|            8          45    =>    49        -ABBA-                  0.1610
 BSE|            8          45    =>    50        -ABBA-                  0.1434
 BSE|
 BSE|            9          44    =>    46        -ABBA-                  0.1139
 BSE|            9          44    =>    47        -ABBA-                  0.1038
 BSE|            9          44    =>    50        -ABBA-                  0.1875
 BSE|            9          44    =>    51        -ABBA-                  0.1023
 BSE|            9          44    =>    52        -ABBA-                  0.2096
 BSE|            9          44    =>    53        -ABBA-                  0.1401
 BSE|            9          45    =>    48        -ABBA-                  0.1055
 BSE|            9          45    =>    49        -ABBA-                  0.1727
 BSE|            9          45    =>    50        -ABBA-                  0.3104
 BSE|            9          45    =>    51        -ABBA-                  0.1449
 BSE|            9          45    =>    52        -ABBA-                  0.1685
 BSE|            9          45    =>    54        -ABBA-                  0.2819
 BSE|            9          45    =>    56        -ABBA-                  0.1178
 BSE|
 BSE|           10          44    =>    47        -ABBA-                  0.2158
 BSE|           10          44    =>    48        -ABBA-                  0.1847
 BSE|           10          44    =>    49        -ABBA-                  0.1080
 BSE|           10          44    =>    50        -ABBA-                  0.2236
 BSE|           10          44    =>    52        -ABBA-                  0.1064
 BSE|           10          44    =>    53        -ABBA-                  0.1505
 BSE|           10          44    =>    54        -ABBA-                  0.1656
 BSE|           10          45    =>    47        -ABBA-                  0.2260
 BSE|           10          45    =>    50        -ABBA-                  0.1842
 BSE|           10          45    =>    52        -ABBA-                  0.1328
 BSE|           10          45    =>    53        -ABBA-                  0.3044
 BSE|           10          45    =>    55        -ABBA-                  0.1140
 BSE|
 BSE|           11          41    =>    51        -ABBA-                  0.1364
 BSE|           11          42    =>    48        -ABBA-                  0.1234
 BSE|           11          42    =>    49        -ABBA-                  0.1287
 BSE|           11          44    =>    46        -ABBA-                  0.1256
 BSE|           11          44    =>    47        -ABBA-                  0.1268
 BSE|           11          44    =>    48        -ABBA-                  0.2563
 BSE|           11          44    =>    49        -ABBA-                  0.1228
 BSE|           11          44    =>    51        -ABBA-                  0.1460
 BSE|           11          44    =>    52        -ABBA-                  0.1552
 BSE|           11          45    =>    47        -ABBA-                  0.1239
 BSE|           11          45    =>    48        -ABBA-                  0.3002
 BSE|           11          45    =>    51        -ABBA-                  0.2207
 BSE|           11          45    =>    52        -ABBA-                  0.1653
 BSE|
 BSE|           12          41    =>    47        -ABBA-                  0.1015
 BSE|           12          42    =>    47        -ABBA-                  0.1291
 BSE|           12          43    =>    47        -ABBA-                  0.1125
 BSE|           12          43    =>    49        -ABBA-                  0.1076
 BSE|           12          44    =>    47        -ABBA-                  0.1959
 BSE|           12          44    =>    53        -ABBA-                  0.1252
 BSE|           12          45    =>    47        -ABBA-                  0.2138
 BSE|           12          45    =>    49        -ABBA-                  0.2204
 BSE|           12          45    =>    50        -ABBA-                  0.1386
 BSE|           12          45    =>    52        -ABBA-                  0.1046
 BSE|           12          45    =>    53        -ABBA-                  0.3845
 BSE|
 BSE|           13          40    =>    46        -ABBA-                  0.1762
 BSE|           13          41    =>    47        -ABBA-                  0.1460
 BSE|           13          41    =>    49        -ABBA-                  0.1180
 BSE|           13          42    =>    47        -ABBA-                  0.1401
 BSE|           13          43    =>    48        -ABBA-                  0.1749
 BSE|           13          43    =>    49        -ABBA-                  0.1863
 BSE|           13          43    =>    50        -ABBA-                  0.1260
 BSE|           13          44    =>    47        -ABBA-                  0.2186
 BSE|           13          44    =>    49        -ABBA-                  0.1224
 BSE|           13          45    =>    47        -ABBA-                  0.1870
 BSE|           13          45    =>    49        -ABBA-                  0.3215
 BSE|           13          45    =>    50        -ABBA-                  0.1184
 BSE|           13          45    =>    53        -ABBA-                  0.1311
 BSE|
 BSE|           14          40    =>    46        -ABBA-                  0.1987
 BSE|           14          41    =>    48        -ABBA-                  0.1637
 BSE|           14          42    =>    47        -ABBA-                  0.2226
 BSE|           14          42    =>    49        -ABBA-                  0.1067
 BSE|           14          43    =>    47        -ABBA-                  0.1360
 BSE|           14          43    =>    48        -ABBA-                  0.1325
 BSE|           14          43    =>    49        -ABBA-                  0.2479
 BSE|           14          43    =>    50        -ABBA-                  0.1531
 BSE|           14          44    =>    49        -ABBA-                  0.2547
 BSE|           14          45    =>    49        -ABBA-                  0.2542
 BSE|           14          45    =>    51        -ABBA-                  0.1109
 BSE|           14          45    =>    53        -ABBA-                  0.1443
 BSE|
 BSE|           15          41    =>    47        -ABBA-                  0.1094
 BSE|           15          42    =>    47        -ABBA-                  0.5265
 BSE|           15          44    =>    47        -ABBA-                  0.1418
 BSE|           15          44    =>    49        -ABBA-                  0.1172
 BSE|           15          45    =>    47        -ABBA-                  0.1501
 BSE|           15          45    =>    49        -ABBA-                  0.1152
 BSE|           15          45    =>    51        -ABBA-                  0.1203
 BSE|
 BSE|           16          40    =>    46        -ABBA-                  0.1425
 BSE|           16          41    =>    48        -ABBA-                  0.1323
 BSE|           16          41    =>    49        -ABBA-                  0.1310
 BSE|           16          42    =>    47        -ABBA-                  0.1303
 BSE|           16          43    =>    48        -ABBA-                  0.1848
 BSE|           16          43    =>    49        -ABBA-                  0.1205
 BSE|           16          44    =>    48        -ABBA-                  0.1210
 BSE|           16          44    =>    50        -ABBA-                  0.2628
 BSE|           16          44    =>    51        -ABBA-                  0.1094
 BSE|           16          45    =>    48        -ABBA-                  0.2385
 BSE|           16          45    =>    50        -ABBA-                  0.2810
 BSE|           16          45    =>    51        -ABBA-                  0.1610
 BSE|
 BSE|           17          41    =>    47        -ABBA-                  0.1043
 BSE|           17          41    =>    51        -ABBA-                  0.1832
 BSE|           17          41    =>    53        -ABBA-                  0.1169
 BSE|           17          44    =>    46        -ABBA-                  0.3748
 BSE|           17          44    =>    48        -ABBA-                  0.1577
 BSE|           17          44    =>    50        -ABBA-                  0.1898
 BSE|           17          44    =>    56        -ABBA-                  0.1192
 BSE|           17          45    =>    46        -ABBA-                  0.1959
 BSE|           17          45    =>    50        -ABBA-                  0.1817
 BSE|           17          45    =>    54        -ABBA-                  0.1038
 BSE|           17          45    =>    55        -ABBA-                  0.1029
 BSE|
 BSE|           18          41    =>    46        -ABBA-                  0.1226
 BSE|           18          41    =>    51        -ABBA-                  0.2334
 BSE|           18          41    =>    53        -ABBA-                  0.1522
 BSE|           18          42    =>    48        -ABBA-                  0.1398
 BSE|           18          42    =>    51        -ABBA-                  0.1264
 BSE|           18          42    =>    53        -ABBA-                  0.1089
 BSE|           18          44    =>    46        -ABBA-                  0.3180
 BSE|           18          44    =>    50        -ABBA-                  0.1841
 BSE|           18          44    =>    53        -ABBA-                  0.1203
 BSE|           18          45    =>    46        -ABBA-                  0.1284
 BSE|           18          45    =>    50        -ABBA-                  0.1251
 BSE|           18          45    =>    51        -ABBA-                  0.1288
 BSE|           18          45    =>    56        -ABBA-                  0.1814
 BSE|
 BSE|           19          42    =>    48        -ABBA-                  0.2104
 BSE|           19          42    =>    49        -ABBA-                  0.1251
 BSE|           19          42    =>    53        -ABBA-                  0.1038
 BSE|           19          44    =>    46        -ABBA-                  0.1601
 BSE|           19          44    =>    50        -ABBA-                  0.1047
 BSE|           19          44    =>    51        -ABBA-                  0.1464
 BSE|           19          44    =>    52        -ABBA-                  0.1644
 BSE|           19          44    =>    53        -ABBA-                  0.2740
 BSE|           19          44    =>    57        -ABBA-                  0.1410
 BSE|           19          45    =>    53        -ABBA-                  0.2279
 BSE|           19          45    =>    54        -ABBA-                  0.1705
 BSE|           19          45    =>    57        -ABBA-                  0.2004
 BSE|
 BSE|           20          41    =>    51        -ABBA-                  0.1063
 BSE|           20          44    =>    46        -ABBA-                  0.1477
 BSE|           20          44    =>    49        -ABBA-                  0.1170
 BSE|           20          44    =>    52        -ABBA-                  0.1267
 BSE|           20          44    =>    53        -ABBA-                  0.1675
 BSE|           20          44    =>    54        -ABBA-                  0.1709
 BSE|           20          44    =>    55        -ABBA-                  0.2615
 BSE|           20          44    =>    59        -ABBA-                  0.1262
 BSE|           20          45    =>    52        -ABBA-                  0.2587
 BSE|           20          45    =>    55        -ABBA-                  0.2419
 BSE|           20          45    =>    56        -ABBA-                  0.2204
 BSE|           20          45    =>    59        -ABBA-                  0.1392
 BSE|
 BSE|           21          44    =>    46        -ABBA-                  0.1779
 BSE|           21          44    =>    48        -ABBA-                  0.1042
 BSE|           21          44    =>    50        -ABBA-                  0.1359
 BSE|           21          44    =>    51        -ABBA-                  0.1103
 BSE|           21          44    =>    53        -ABBA-                  0.1509
 BSE|           21          44    =>    54        -ABBA-                  0.1035
 BSE|           21          44    =>    55        -ABBA-                  0.1830
 BSE|           21          45    =>    51        -ABBA-                  0.1596
 BSE|           21          45    =>    54        -ABBA-                  0.1107
 BSE|           21          45    =>    55        -ABBA-                  0.2505
 BSE|           21          45    =>    56        -ABBA-                  0.3601
 BSE|           21          45    =>    57        -ABBA-                  0.1173
 BSE|
 BSE|           22          41    =>    47        -ABBA-                  0.2614
 BSE|           22          42    =>    47        -ABBA-                  0.1605
 BSE|           22          42    =>    48        -ABBA-                  0.2395
 BSE|           22          42    =>    49        -ABBA-                  0.1707
 BSE|           22          43    =>    47        -ABBA-                  0.1019
 BSE|           22          44    =>    48        -ABBA-                  0.1492
 BSE|           22          44    =>    51        -ABBA-                  0.1618
 BSE|           22          44    =>    53        -ABBA-                  0.1997
 BSE|           22          44    =>    55        -ABBA-                  0.1057
 BSE|           22          45    =>    51        -ABBA-                  0.2319
 BSE|           22          45    =>    57        -ABBA-                  0.1353
 BSE|
 BSE|           23          41    =>    47        -ABBA-                  0.2316
 BSE|           23          41    =>    48        -ABBA-                  0.1499
 BSE|           23          41    =>    52        -ABBA-                  0.1999
 BSE|           23          41    =>    54        -ABBA-                  0.1026
 BSE|           23          42    =>    48        -ABBA-                  0.1629
 BSE|           23          42    =>    49        -ABBA-                  0.1542
 BSE|           23          42    =>    52        -ABBA-                  0.1404
 BSE|           23          43    =>    47        -ABBA-                  0.1073
 BSE|           23          44    =>    51        -ABBA-                  0.2956
 BSE|           23          44    =>    55        -ABBA-                  0.1268
 BSE|           23          45    =>    56        -ABBA-                  0.1239
 BSE|
 BSE|           24          41    =>    47        -ABBA-                  0.3176
 BSE|           24          42    =>    47        -ABBA-                  0.1331
 BSE|           24          42    =>    51        -ABBA-                  0.1063
 BSE|           24          42    =>    52        -ABBA-                  0.1062
 BSE|           24          43    =>    47        -ABBA-                  0.1332
 BSE|           24          44    =>    47        -ABBA-                  0.1017
 BSE|           24          44    =>    48        -ABBA-                  0.1074
 BSE|           24          44    =>    50        -ABBA-                  0.1242
 BSE|           24          44    =>    52        -ABBA-                  0.1801
 BSE|           24          44    =>    53        -ABBA-                  0.2316
 BSE|           24          44    =>    55        -ABBA-                  0.1248
 BSE|           24          44    =>    57        -ABBA-                  0.1188
 BSE|           24          45    =>    47        -ABBA-                  0.1234
 BSE|           24          45    =>    48        -ABBA-                  0.1091
 BSE|           24          45    =>    50        -ABBA-                  0.1282
 BSE|           24          45    =>    51        -ABBA-                  0.1661
 BSE|           24          45    =>    58        -ABBA-                  0.1176
 BSE|
 BSE|           25          41    =>    47        -ABBA-                  0.2011
 BSE|           25          41    =>    52        -ABBA-                  0.1065
 BSE|           25          42    =>    51        -ABBA-                  0.1150
 BSE|           25          42    =>    52        -ABBA-                  0.2530
 BSE|           25          42    =>    54        -ABBA-                  0.1780
 BSE|           25          42    =>    55        -ABBA-                  0.1501
 BSE|           25          44    =>    51        -ABBA-                  0.1843
 BSE|           25          44    =>    52        -ABBA-                  0.1607
 BSE|           25          44    =>    55        -ABBA-                  0.1043
 BSE|           25          45    =>    51        -ABBA-                  0.1548
 BSE|           25          45    =>    52        -ABBA-                  0.1117
 BSE|           25          45    =>    54        -ABBA-                  0.1723
 BSE|           25          45    =>    57        -ABBA-                  0.1836
 BSE|
 BSE| Transition moments d_r^n (with r∈(x,y,z), in atomic units)
 BSE| and oscillator strength f^n of excitation level n are obtained from
 BSE|
 BSE|    d_r^n = sum_ia sqrt(2) < ψ_i | r | ψ_a > ( X_ia^n + Y_ia^n )
 BSE|
 BSE|        f^n = 2/3 * Ω^n sum_r∈(x,y,z) ( d_r^n )^2
 BSE|
 BSE| where we introduced
 BSE|
 BSE| ψ_i:   occupied molecular orbitals,
 BSE| ψ_a:   empty molecular orbitals and
 BSE|   r:   position operator.
 BSE|
 BSE| prelim Ref.: Eqs. (23), (24)
 BSE| in J. Chem. Phys. 152, 044105 (2020); https://doi.org/10.1063/1.5123290
 BSE|
 BSE| Optical properties from solving the BSE without the TDA:
 BSE|
 BSE|  Excitation n  TDA/ABBA        d_x^n     d_y^n     d_z^n Osc. strength f^n
 BSE|             1    -ABBA-        0.032    -0.022    -0.102             0.001
 BSE|             2    -ABBA-       -0.010     0.088     0.037             0.001
 BSE|             3    -ABBA-       -0.406    -0.117     0.433             0.052
 BSE|             4    -ABBA-        0.466     0.191     0.013             0.036
 BSE|             5    -ABBA-       -0.133     0.177    -0.344             0.025
 BSE|             6    -ABBA-        0.229     0.520     0.456             0.080
 BSE|             7    -ABBA-       -0.101    -0.133    -0.435             0.034
 BSE|             8    -ABBA-        0.007     0.051    -0.115             0.002
 BSE|             9    -ABBA-       -0.350     0.112    -0.071             0.023
 BSE|            10    -ABBA-        0.254     0.061    -0.131             0.014
 BSE|            11    -ABBA-        0.043    -0.106    -0.437             0.034
 BSE|            12    -ABBA-        0.043    -0.186     0.177             0.012
 BSE|            13    -ABBA-       -0.101    -0.014     0.272             0.014
 BSE|            14    -ABBA-        0.195     0.001    -0.492             0.048
 BSE|            15    -ABBA-        0.115    -0.068     0.045             0.003
 BSE|            16    -ABBA-        0.048     0.078    -0.041             0.002
 BSE|            17    -ABBA-        0.021    -0.204     0.257             0.019
 BSE|            18    -ABBA-       -0.010     0.181    -0.132             0.009
 BSE|            19    -ABBA-       -0.333     0.081     0.788             0.133
 BSE|            20    -ABBA-        0.215     0.107    -0.166             0.016
 BSE|            21    -ABBA-       -0.100    -0.181    -0.053             0.008
 BSE|            22    -ABBA-        0.107     0.016    -0.596             0.068
 BSE|            23    -ABBA-       -0.110     0.004    -0.692             0.091
 BSE|            24    -ABBA-        0.196     0.283     0.083             0.023
 BSE|            25    -ABBA-       -0.003    -0.056    -0.325             0.021
 BSE|
 BSE| Check for Thomas-Reiche-Kuhn sum rule
 BSE|
 BSE|                              N_e = Σ_n f^n
 BSE|
 BSE| Number of electrons N_e:                                                90
 BSE| Sum over oscillator strengths Σ_n f^n :                             60.013
 BSE|
 BSE|
 BSE|
 BSE| The BSE was successfully calculated. Have a nice day!

  Total RI-RPA Time=                                                   12.124426


 ENERGY| Total FORCE_EVAL ( QS ) energy [hartree]           -646.064674481887550

 -------------------------------------------------------------------------------
 -                                                                             -
 -                                DBCSR STATISTICS                             -
 -                                                                             -
 -------------------------------------------------------------------------------
 COUNTER                                    TOTAL       BLAS       SMM       ACC
 flops     9 x     9 x     9                11664       0.0%    100.0%      0.0%     
 flops    12 x     9 x     6                20736       0.0%    100.0%      0.0%     
 flops     1 x     1 x     9                20952       0.0%    100.0%      0.0%     
 flops    15 x     9 x     6                25920       0.0%    100.0%      0.0%     
 flops     6 x     9 x     9                31104       0.0%    100.0%      0.0%     
 flops     9 x     6 x     9                31104       0.0%    100.0%      0.0%     
 flops     9 x     9 x     6                46656       0.0%    100.0%      0.0%     
 flops    12 x     6 x     6                55296       0.0%    100.0%      0.0%     
 flops     1 x     1 x     6                55872       0.0%    100.0%      0.0%     
 flops    12 x     9 x    14                60480       0.0%    100.0%      0.0%     
 flops    15 x     6 x     6                69120       0.0%    100.0%      0.0%     
 flops    15 x     9 x    14                75600       0.0%    100.0%      0.0%     
 flops     6 x     6 x     9                82944       0.0%    100.0%      0.0%     
 flops    14 x     9 x     9                90720       0.0%    100.0%      0.0%     
 flops    28 x     9 x     6                96768       0.0%    100.0%      0.0%     
 flops     9 x     6 x     6               124416       0.0%    100.0%      0.0%     
 flops     6 x     9 x     6               134784       0.0%    100.0%      0.0%     
 flops    12 x     6 x    14               161280       0.0%    100.0%      0.0%     
 flops    12 x    14 x     6               161280       0.0%    100.0%      0.0%     
 flops     1 x     1 x    14               162960       0.0%    100.0%      0.0%     
 flops    15 x     6 x    14               201600       0.0%    100.0%      0.0%     
 flops    15 x    14 x     6               201600       0.0%    100.0%      0.0%     
 flops    14 x     6 x     9               241920       0.0%    100.0%      0.0%     
 flops    28 x     6 x     6               258048       0.0%    100.0%      0.0%     
 flops    13 x     1 x     9               272376       0.0%    100.0%      0.0%     
 flops    28 x     9 x    14               282240       0.0%    100.0%      0.0%     
 flops     6 x     6 x     6               359424       0.0%    100.0%      0.0%     
 flops    14 x     9 x     6               362880       0.0%    100.0%      0.0%     
 flops     9 x     1 x     9               374868       0.0%    100.0%      0.0%     
 flops    12 x    14 x    14               470400       0.0%    100.0%      0.0%     
 flops    15 x    14 x    14               588000       0.0%    100.0%      0.0%     
 flops    13 x     1 x     6               726336       0.0%    100.0%      0.0%     
 flops    28 x    14 x     6               752640       0.0%    100.0%      0.0%     
 flops    28 x     6 x    14               752640       0.0%    100.0%      0.0%     
 flops     9 x     9 x    14               782460       0.0%    100.0%      0.0%     
 flops    14 x     6 x     6               967680       0.0%    100.0%      0.0%     
 flops     6 x     1 x     9              1005696       0.0%    100.0%      0.0%     
 flops     9 x     1 x     6              1005696       0.0%    100.0%      0.0%     
 flops     9 x     6 x    14              1224720       0.0%    100.0%      0.0%     
 flops     6 x     9 x    14              1829520       0.0%    100.0%      0.0%     
 flops    13 x     1 x    14              2118480       0.0%    100.0%      0.0%     
 flops    28 x    14 x    14              2195200       0.0%    100.0%      0.0%     
 flops     6 x     1 x     6              2681856       0.0%    100.0%      0.0%     
 flops    14 x     1 x     9              2932272       0.0%    100.0%      0.0%     
 flops     9 x     1 x    14              2932776       0.0%    100.0%      0.0%     
 flops     1 x    32 x     9              3352320       0.0%    100.0%      0.0%     
 flops    13 x    13 x     9              3540888       0.0%    100.0%      0.0%     
 flops    14 x     9 x    14              3739680       0.0%    100.0%      0.0%     
 flops    32 x     1 x     9              4022784       0.0%    100.0%      0.0%     
 flops     6 x     6 x    14              4495680       0.0%    100.0%      0.0%     
 flops     9 x    14 x     9              5366088       0.0%    100.0%      0.0%     
 flops     6 x     1 x    14              7822080       0.0%    100.0%      0.0%     
 flops    14 x     1 x     6              7822080       0.0%    100.0%      0.0%     
 flops    32 x    13 x     9              8716032       0.0%    100.0%      0.0%     
 flops     9 x     9 x    32              8864640       0.0%    100.0%      0.0%     
 flops     1 x    32 x     6              8939520       0.0%    100.0%      0.0%     
 flops    13 x    13 x     6              9442368       0.0%    100.0%      0.0%     
 flops     9 x    13 x     9              9746568       0.0%    100.0%      0.0%     
 flops    32 x     1 x     6             10727424       0.0%    100.0%      0.0%     
 flops     9 x     6 x    32             11819520       0.0%    100.0%      0.0%     
 flops    14 x     6 x    14             11983440       0.0%    100.0%      0.0%     
 flops     6 x    14 x     9             14394240       0.0%    100.0%      0.0%     
 flops     9 x    14 x     6             14515200       0.0%    100.0%      0.0%     
 flops     6 x     9 x    32             19699200       0.0%    100.0%      0.0%     
 flops    14 x     1 x    14             22814400       0.0%    100.0%      0.0%     
 flops    32 x    13 x     6             23242752       0.0%    100.0%      0.0%     
 flops     1 x    32 x    14             26073600       0.0%    100.0%      0.0%     
 flops     6 x    13 x     9             26148096       0.0%    100.0%      0.0%     
 flops     9 x    13 x     6             26148096       0.0%    100.0%      0.0%     
 flops    13 x    13 x    14             27540240       0.0%    100.0%      0.0%     
 flops    32 x     1 x    14             31288320       0.0%    100.0%      0.0%     
 flops    14 x     9 x    32             36771840       0.0%    100.0%      0.0%     
 flops     6 x    14 x     6             38787840       0.0%    100.0%      0.0%     
 flops    14 x    14 x     9             46089792       0.0%    100.0%      0.0%     
 flops     9 x    14 x    14             46357920       0.0%    100.0%      0.0%     
 flops     6 x     6 x    32             47278080       0.0%    100.0%      0.0%     
 flops    13 x    32 x     9             52296192       0.0%    100.0%      0.0%     
 flops     9 x    14 x    32             55157760       0.0%    100.0%      0.0%     
 flops    32 x    14 x     9             56318976       0.0%    100.0%      0.0%     
 flops    32 x    13 x    14             67791360       0.0%    100.0%      0.0%     
 flops     6 x    13 x     6             69728256       0.0%    100.0%      0.0%     
 flops    14 x    13 x     9             76252176       0.0%    100.0%      0.0%     
 flops     9 x    13 x    14             76252176       0.0%    100.0%      0.0%     
 flops     6 x    14 x    32            119508480       0.0%    100.0%      0.0%     
 flops     6 x    14 x    14            121845360       0.0%    100.0%      0.0%     
 flops    14 x    14 x     6            123846912       0.0%    100.0%      0.0%     
 flops    14 x     6 x    32            125637120       0.0%    100.0%      0.0%     
 flops    13 x    32 x     6            139456512       0.0%    100.0%      0.0%     
 flops    32 x    14 x     6            150183936       0.0%    100.0%      0.0%     
 flops     9 x    32 x     9            156318336       0.0%    100.0%      0.0%     
 flops     6 x    13 x    14            203374080       0.0%    100.0%      0.0%     
 flops    14 x    13 x     6            203374080       0.0%    100.0%      0.0%     
 flops    14 x    14 x    14            389894960       0.0%    100.0%      0.0%     
 flops    14 x    14 x    32            393254400       0.0%    100.0%      0.0%     
 flops    13 x    32 x    14            406748160       0.0%    100.0%      0.0%     
 flops     6 x    32 x     9            419364864       0.0%    100.0%      0.0%     
 flops     9 x    32 x     6            419364864       0.0%    100.0%      0.0%     
 flops    32 x    14 x    14            438036480       0.0%    100.0%      0.0%     
 flops    14 x    13 x    14            593174400       0.0%    100.0%      0.0%     
 flops     6 x    32 x     6           1118306304       0.0%    100.0%      0.0%     
 flops     9 x    32 x    14           1223091072       0.0%    100.0%      0.0%     
 flops    14 x    32 x     9           1279458432       0.0%    100.0%      0.0%     
 flops    32 x    32 x     9           1437474816       0.0%    100.0%      0.0%     
 flops     6 x    32 x    14           3261726720       0.0%    100.0%      0.0%     
 flops    14 x    32 x     6           3411910656       0.0%    100.0%      0.0%     
 flops    32 x    32 x     6           3833266176       0.0%    100.0%      0.0%     
 flops    14 x    32 x    14           9951406080       0.0%    100.0%      0.0%     
 flops    32 x    32 x    14          11180359680       0.0%    100.0%      0.0%     
 flops inhomo. stacks                     4660544     100.0%      0.0%      0.0%
 flops total                        42.153432E+09       0.0%    100.0%      0.0%
 flops max/rank                    294.541312E+06       0.0%    100.0%      0.0%
 matmuls inhomo. stacks                      1000     100.0%      0.0%      0.0%
 matmuls total                            5295430       0.0%    100.0%      0.0%
 number of processed stacks                327940       0.3%     99.7%      0.0%
 average stack size                                     1.0      16.2       0.0
 marketing flops                    41.637704E+09
 -------------------------------------------------------------------------------
 # multiplications                            124
 max memory usage/rank               1.503797E+09
 # max total images/rank                        3
 # max 3D layers                                1
 # MPI messages exchanged                  844800
 MPI messages size (bytes):
  total size                         1.018464E+09
  min size                           0.000000E+00
  max size                          10.752000E+03
  average size                       1.205568E+03
 MPI breakdown and total messages size (bytes):
             size <=      128              619995                        0
       128 < size <=     8192              185475                649286400
      8192 < size <=    32768               39330                369177600
     32768 < size <=   131072                   0                        0
    131072 < size <=  4194304                   0                        0
   4194304 < size <= 16777216                   0                        0
  16777216 < size                               0                        0
 -------------------------------------------------------------------------------

 *** WARNING in dbcsr_mm.F:301 :: Using a non-square number of MPI ranks ***
 *** might lead to poor performance. Used ranks: 192 Suggested: 196 400  ***

 -------------------------------------------------------------------------------
 -                                                                             -
 -                      DBCSR MESSAGE PASSING PERFORMANCE                      -
 -                                                                             -
 -------------------------------------------------------------------------------
 ROUTINE             CALLS      AVE VOLUME [Bytes]
 MP_Bcast              109                     12.
 MP_Allreduce          919                     14.
 MP_Alltoall          3032                  84776.
 MP_ISend             9680                    973.
 MP_IRecv             9688                    799.
 -------------------------------------------------------------------------------

 -------------------------------------------------------------------------------
 -                                                                             -
 -                                DBM STATISTICS                               -
 -                                                                             -
 -------------------------------------------------------------------------------
    M  x    N  x    K                                          COUNT     PERCENT
    ?  x    ?  x    ?                                      194641920      52.58%
   ??  x    ?  x    ?                                      175546368      47.42%
 -------------------------------------------------------------------------------

 -------------------------------------------------------------------------------
 -                                                                             -
 -                                GRID STATISTICS                              -
 -                                                                             -
 -------------------------------------------------------------------------------
 LP    KERNEL             BACKEND                              COUNT     PERCENT
 2     collocate general  CPU                                 368640      18.77%
 2     integrate general  CPU                                 368640      18.77%
 3     collocate ortho    CPU                                 240576      12.25%
 3     integrate ortho    CPU                                 240576      12.25%
 2     collocate ortho    CPU                                 198624      10.11%
 2     integrate ortho    CPU                                 198624      10.11%
 4     collocate ortho    CPU                                 125088       6.37%
 4     integrate ortho    CPU                                 125088       6.37%
 1     collocate ortho    CPU                                  42144       2.15%
 1     integrate ortho    CPU                                  42144       2.15%
 0     collocate general  CPU                                   3840       0.20%
 0     integrate general  CPU                                   3840       0.20%
 0     collocate ortho    CPU                                   3168       0.16%
 0     integrate ortho    CPU                                   3168       0.16%
 -------------------------------------------------------------------------------

 MEMORY| Estimated peak process memory [MiB]                                1728

 -------------------------------------------------------------------------------
 ----                             MULTIGRID INFO                            ----
 -------------------------------------------------------------------------------
 count for grid        1:       20672447          cutoff [a.u.]          250.00
 count for grid        2:        3413153          cutoff [a.u.]           83.33
 count for grid        3:        2157040          cutoff [a.u.]           27.78
 count for grid        4:         236049          cutoff [a.u.]            9.26
 total gridlevel count  :       26478689

 -------------------------------------------------------------------------------
 -                                                                             -
 -                         MESSAGE PASSING PERFORMANCE                         -
 -                                                                             -
 -------------------------------------------------------------------------------

 ROUTINE             CALLS      AVE VOLUME [Bytes]
 MP_Group              623
 MP_Bcast             6431                 203575.
 MP_Allreduce        36999                   6045.
 MP_Sync               941
 MP_Alltoall          3024               12417451.
 MP_SendRecv         37123                  68763.
 MP_ISendRecv        73726                  36941.
 MP_Wait            108074
 MP_comm_split          48
 MP_ISend            34062                 329752.
 MP_IRecv            34338                 327173.
 -------------------------------------------------------------------------------


 -------------------------------------------------------------------------------
 -                                                                             -
 -                           R E F E R E N C E S                               -
 -                                                                             -
 -------------------------------------------------------------------------------
 
 CP2K version 2025.1 (Development Version), the CP2K developers group (2025).
 CP2K is freely available from https://www.cp2k.org/ .
 
 T. D. Kuehne, M. Iannuzzi, M. Del Ben, V. V. Rybkin, P. Seewald, F. Stein, T. 
 Laino, R. Z. Khaliullin, O. Schuett, F. Schiffmann, D. Golze, J. Wilhelm, S. 
 Chulkov, M. H. Bani-Hashemian, V. Weber, U. Borstnik, M. Taillefumier, A. S. 
 Jakobovits, A. Lazzaro, H. Pabst, T. Mueller, R. Schade, M. Guidon, S. 
 Andermatt, N. Holmberg, G. K. Schenter, A. Hehn, A. Bussy, F. Belleflamme, G. 
 Tabacchi, A. Gloess, M. Lass, I. Bethune, C. J. Mundy, C. Plessl, M. Watkins, 
 J. VandeVondele, M. Krack, J. Hutter.
 J. Chem. Phys. 152, 194103 (2020).
 CP2K: An electronic structure and molecular dynamics software package - 
 Quickstep: Efficient and accurate electronic structure calculations.
 https://doi.org/10.1063/5.0007045

 J. Wilhelm, D. Golze, L. Talirz, J. Hutter, C. A. Pignedoli.
 J. Phys. Chem. Lett. 9, 306-312 (2018).
 Toward GW calculations on thousands of atoms.
 https://doi.org/10.1021/acs.jpclett.7b02740

 J. Wilhelm, J. Hutter.
 Phys. Rev. B 95, 235123 (2017).
 Periodic GW calculations in the Gaussian and plane-waves scheme.
 https://doi.org/10.1103/PhysRevB.95.235123

 O. Schuett, P. Messmer, J. Hutter, J. VandeVondele.
 Electronic Structure Calculations on Graphics Processing Units, 173-190 (2016).
 GPU-Accelerated Sparse Matrix-Matrix Multiplication for Linear Scaling Density 
 Functional Theory.
 https://doi.org/10.1002/9781118670712.ch8

 J. Wilhelm, M. Del Ben, J. Hutter.
 J. Chem. Theory Comput. 12, 3623-3635 (2016).
 GW in the Gaussian and plane waves scheme with application to linear acenes.
 https://doi.org/10.1021/acs.jctc.6b00380

 A. Heinecke, G. Henry, M. Hutchinson, H. Pabst.
 Proceedings of Intl. Supercomputing Conference, 981-991 (2016).
 LIBXSMM: Accelerating Small Matrix Multiplications by Runtime Code Generation.
 https://doi.org/10.1109/SC.2016.83

 M. Del Ben, O. Schuett, T. Wentz, P. Messmer, J. Hutter, J. VandeVondele.
 Comput. Phys. Commun. 187, 120-129 (2015).
 Enabling simulation at the fifth rung of DFT: Large scale RPA calculations with 
 excellent time to solution.
 https://doi.org/10.1016/j.cpc.2014.10.021

 J. Hutter, M. Iannuzzi, F. Schiffmann, J. VandeVondele.
 WIREs Comput Mol Sci. 4, 15-25 (2014).
 CP2K: atomistic simulations of condensed matter systems.
 https://doi.org/10.1002/wcms.1159

 U. Borstnik, J. VandeVondele, V. Weber, J. Hutter.
 Parallel Comput. 40, 47-58 (2014).
 Sparse matrix multiplication: The distributed block-compressed sparse row 
 library.
 https://doi.org/10.1016/j.parco.2014.03.012

 A. Marek, V. Blum, R. Johanni, V. Havu, B. Lang, T. Auckenthaler, A. Heinecke, 
 H. Bungartz, H. Lederer.
 J. Phys. Condens. Matter 26, 213201 (2014).
 The ELPA library: scalable parallel eigenvalue solutions for electronic 
 structure theory and computational science.
 https://doi.org/10.1088/0953-8984/26/21/213201

 M. Del Ben, J. Hutter, J. VandeVondele.
 J. Chem. Theory Comput. 9, 2654-2671 (2013).
 Electron Correlation in the Condensed Phase from a Resolution of Identity 
 Approach Based on the Gaussian and Plane Waves Scheme.
 https://doi.org/10.1021/ct4002202

 M. Del Ben, J. Hutter, J. VandeVondele.
 J. Chem. Theory Comput. 8, 4177-4188 (2012).
 Second-Order Moller-Plesset Perturbation Theory in the Condensed Phase: An 
 Efficient and Massively Parallel Gaussian and Plane Waves Approach.
 https://doi.org/10.1021/ct300531w

 M. Guidon, J. Hutter, J. VandeVondele.
 J. Chem. Theory Comput. 5, 3010-3021 (2009).
 Robust Periodic Hartree-Fock Exchange for Large-Scale Simulations Using 
 Gaussian Basis Sets.
 https://doi.org/10.1021/ct900494g

 M. Guidon, F. Schiffmann, J. Hutter, J. VandeVondele.
 J. Chem. Phys. 128, 214104 (2008).
 Ab initio molecular dynamics using hybrid density functionals.
 https://doi.org/10.1063/1.2931945

 L. Genovese, T. Deutsch, S. Goedecker.
 J. Chem. Phys. 127, 054704 (2007).
 Efficient and accurate three-dimensional Poisson solver for surface problems.
 https://doi.org/10.1063/1.2754685

 J. VandeVondele, J. Hutter.
 J. Chem. Phys. 127, 114105 (2007).
 Gaussian basis sets for accurate calculations on molecular systems in gas and 
 condensed phases.
 https://doi.org/10.1063/1.2770708

 L. Genovese, T. Deutsch, A. Neelov, S. Goedecker, G. Beylkin.
 J. Chem. Phys. 125, 074105 (2006).
 Efficient solution of Poisson's equation with free boundary conditions.
 https://doi.org/10.1063/1.2335442

 M. Frigo, S. G. Johnson.
 Proc. IEEE 93, 216-231 (2005).
 The design and implementation of FFTW3.
 https://doi.org/10.1109/JPROC.2004.840301

 M. Krack, M. Parrinello.
 Phys. Chem. Chem. Phys. 2, 2105-2112 (2000).
 All-electron ab-initio molecular dynamics.
 https://doi.org/10.1039/b001167n

 G. Lippert, J. Hutter, M. Parrinello.
 Theor. Chem. Acc. 103, 124-140 (1999).
 The Gaussian and augmented-plane-wave density functional method for ab initio 
 molecular dynamics simulations.
 https://doi.org/10.1007/s002140050523

 J. P. Perdew, K. Burke, M. Ernzerhof.
 Phys. Rev. Lett. 77, 3865-3868 (1996).
 Generalized gradient approximation made simple.
 https://doi.org/10.1103/PhysRevLett.77.3865


 -------------------------------------------------------------------------------
 -                                                                             -
 -                                T I M I N G                                  -
 -                                                                             -
 -------------------------------------------------------------------------------
 SUBROUTINE                       CALLS  ASD         SELF TIME        TOTAL TIME
                                MAXIMUM       AVERAGE  MAXIMUM  AVERAGE  MAXIMUM
 CP2K                                 1  1.0    0.019    0.035  160.825  160.826
 qs_energies                          1  2.0    0.000    0.000  160.412  160.491
 scf_env_do_scf                       1  3.0    0.000    0.000  146.662  146.669
 scf_env_do_scf_inner_loop           95  4.0    0.002    0.005  146.662  146.668
 qs_ks_build_kohn_sham_matrix        96  7.0    0.013    0.018  106.003  106.037
 qs_ks_update_qs_env                 95  5.0    0.001    0.001  105.314  105.348
 rebuild_ks_matrix                   95  6.0    0.000    0.000  105.304  105.338
 fft_wrap_pw1pw2                   2007  9.9    0.037    0.047   56.204   61.523
 fft_wrap_pw1pw2_250               1431 11.1    1.085    1.330   53.256   60.300
 fft3d_ps                          2007 11.9    7.100    9.932   51.841   56.948
 mp_alltoall_z22v                  2007 13.9   42.502   46.953   42.502   46.953
 qs_rho_update_rho_low               96  5.0    0.001    0.001   31.122   31.126
 calculate_rho_elec                  96  6.0    0.126    0.178   30.101   30.102
 pw_poisson_solve                    96  8.0    0.418    0.548   28.429   28.468
 qs_vxc_create                       96  8.0    0.001    0.001   27.170   27.170
 xc_vxc_pw_create                    95  9.0    0.197    0.280   27.169   27.169
 x_to_yz                            858 12.9    0.876    1.579   23.937   27.037
 yz_to_x                            765 13.2    0.670    0.776   20.051   21.729
 xc_pw_derive                       570 11.0    0.004    0.005   21.033   21.640
 density_rs2pw                       96  7.0    0.004    0.004   18.844   19.785
 mp_sum_d                          4919  6.8    7.211   16.206    7.211   16.206
 sum_up_and_integrate                96  8.0    0.001    0.002   15.467   15.898
 integrate_v_rspace                  96  9.0    0.002    0.003   15.390   15.833
 ps_wavelet_solve                    96  9.0    5.724    8.995   13.867   14.998
 mp_waitany                       31596 11.5   11.875   14.742   11.875   14.742
 potential_pw2rs                     96 10.0    0.010    0.013   14.647   14.697
 transfer_pw2rs                     481 10.6    0.009    0.014   12.968   14.221
 xc_rho_set_and_dset_create          95 10.0    0.241    0.309   12.602   14.000
 xc_pw_divergence                    95 10.0    0.002    0.002   13.352   13.743
 mp2_main                             1  3.0    0.000    0.000   12.968   13.048
 transfer_rs2pw                     481  8.4    0.012    0.019   12.215   12.643
 mp2_gpw_main                         1  4.0    0.000    0.000   12.126   12.131
 hfx_ks_matrix                       96  8.0    0.002    0.002   11.971   12.009
 integrate_four_center               96  9.0    3.406    5.301   11.964   11.998
 rpa_ri_compute_en                    1  5.0    0.000    0.000   11.559   11.560
 rpa_num_int                          1  6.0    0.000    0.001   11.539   11.540
 grid_collocate_task_list            96  7.0   10.223   11.208   10.223   11.208
 prepare_gapw_den                    96  8.0    0.002    0.002    9.027    9.747
 transfer_pw2rs_250                 193 11.0    1.659    1.884    7.876    9.248
 gspace_mixing                       94  5.0    0.123    0.174    8.836    8.839
 mp_alltoall_d54                     96 10.0    4.148    8.621    4.148    8.621
 put_rho0_on_grid                    96  9.0    0.140    0.210    7.777    8.497
 transfer_rs2pw_250                 193 10.0    1.808    1.967    7.455    7.937
 start_bse_calculation                1  7.0    0.000    0.001    6.958    6.958
 integrate_vhg0_rspace               96  8.0    0.097    0.129    5.957    6.747
 cp_fm_diag_elpa                    101  7.0    0.000    0.000    6.168    6.185
 cp_fm_diag_elpa_base               101  8.0    6.106    6.123    6.141    6.142
 fft_wrap_pw1pw2_90                 192 10.5    0.038    0.066    2.365    6.022
 mp_isend_dm3                      3852 11.5    2.754    5.625    2.754    5.625
 mp_alltoall_d45                     97 10.0    4.537    5.485    4.537    5.485
 mp_alltoall_d11v                  1704  9.4    3.753    5.457    3.753    5.457
 parallel_gemm_fm                   410  8.3    0.000    0.001    4.844    4.982
 parallel_gemm_fm_cosma             410  9.3    4.844    4.982    4.844    4.982
 mp_waitall_1                     91422 12.0    3.232    4.729    3.232    4.729
 mp_sync                            941  9.6    2.175    4.328    2.175    4.328
 cp2k_distribution_to_z_slices       96  9.0    0.380    0.460    3.147    4.069
 broyden_mixing                      94  6.0    3.874    3.917    3.998    4.015
 transfer_pw2rs_90                   96 12.0    0.308    0.402    2.651    3.797
 compute_GW_self_energy             100  7.0    0.000    0.003    3.646    3.679
 compute_GW_self_energy_deep        100  8.0    0.762    0.792    3.473    3.506
 create_hermitian_form_of_ABBA        1  8.0    0.000    0.000    3.437    3.447
 transfer_rs2pw_90                   96  9.0    0.343    0.413    3.013    3.232
 integrate_four_center_main          96 10.0    0.025    0.055    3.040    3.216
 integrate_four_center_bin         5733 11.0    3.015    3.193    3.015    3.193
 diagonalize_C                        1  8.0    0.000    0.001    3.162    3.171
 cp_fm_power                          2  7.5    0.013    0.023    2.820    2.836
 Vh_1c_gg_integrals                  96  8.0    0.013    0.133    0.968    2.741
 mp_max_i                           666  3.1    0.943    2.677    0.943    2.677
 mp_sum_dm                         5860  7.7    2.291    2.669    2.291    2.669
 transfer_pw2rs_30                   96 12.0    0.423    0.492    2.091    2.558
 pw_integral_ab_c1d_c1d_gs           96  9.0    0.273    0.315    1.043    2.358
 xc_functional_eval                 475 10.8    0.001    0.002    1.135    2.054
 pbe_lda_eval                       475 11.8    1.134    2.053    1.134    2.053
 calc_screening_functions             1 10.0    0.877    0.909    1.852    2.007
 powell_optimize                1243852 11.0    1.766    1.931    1.766    1.931
 rs_grid_zero                       482 11.2    1.516    1.808    1.516    1.808
 qs_scf_new_mos                      95  5.0    0.001    0.001    1.643    1.682
 calculate_vxc_atom                  96  8.0    0.058    0.178    1.645    1.646
 pw_derive                          858 11.3    1.437    1.583    1.437    1.583
 pw_copy                           1435 10.6    1.355    1.539    1.355    1.539
 transfer_rs2pw_30                   96  9.0    0.533    0.626    1.347    1.473
 calc_pair_dist_radii                 1 10.0    0.544    0.591    1.334    1.374
 gaVxcgb_GC                         190  9.0    0.045    1.354    0.045    1.354
 eigensolver_symm                    96  6.0    0.007    0.008    1.312    1.334
 pw_gather_p                        957 11.8    1.029    1.254    1.029    1.254
 pw_scatter_p                      1050 12.1    1.139    1.227    1.139    1.227
 mp_sendrecv_dv                   36672 10.0    1.044    1.163    1.044    1.163
 rs_gather_matrices                  96 10.0    0.003    0.017    0.612    1.125
 grid_integrate_task_list            96 10.0    0.128    1.118    0.128    1.118
 calculate_rho_atom                 480  9.0    0.458    1.115    0.458    1.115
 calculate_rho_atom_coeff            96  6.0    0.053    0.110    1.020    1.023
 pw_poisson_set                      97  8.9    0.002    0.002    0.873    0.912
 pw_copy_to_array                   957 11.8    0.638    0.874    0.638    0.874
 rpa_num_int_RPA_matrix_operati     100  7.0    0.000    0.003    0.859    0.861
 pw_poisson_rebuild                  96  9.0    0.000    0.000    0.806    0.825
 ps_wavelet_create                    1 10.0    0.000    0.000    0.806    0.825
 RS_z_slice_distribution              1 11.0    0.194    0.457    0.806    0.825
 mp_sum_dv                        16318 11.2    0.751    0.795    0.751    0.795
 calc_mat_Q                         100  8.0    0.000    0.000    0.712    0.716
 contract_S_to_Q                    100  9.0    0.000    0.000    0.709    0.714
 compute_vec_Sigma_x_minus_vxc_       1  4.0    0.000    0.000    0.703    0.703
 update_ks_atom                      96  8.0    0.033    0.065    0.544    0.636
 mp_bcast_dm                       3840  9.0    0.512    0.596    0.512    0.596
 pw_axpy                            955  9.3    0.469    0.572    0.469    0.572
 cp_fm_to_fm_submat_general         112 10.1    0.184    0.564    0.184    0.564
 mp2_ri_gpw_compute_in                1  5.0    0.000    0.001    0.556    0.557
 mp2_ri_gpw_compute_in_loop           1  6.0    0.000    0.000    0.547    0.547
 pw_copy_from_array                1050 12.1    0.390    0.512    0.390    0.512
 contract_B_L                         4  7.0    0.001    0.002    0.417    0.505
 mp_irecv_dm3                      3852 11.5    0.093    0.491    0.093    0.491
 fft_wrap_pw1pw2_30                 192 10.5    0.005    0.006    0.384    0.474
 mp_alltoall_z11v                   384 13.5    0.359    0.447    0.359    0.447
 transfer_rs2pw_10                   96  9.0    0.159    0.189    0.388    0.428
 init_scf_run                         1  3.0    0.000    0.000    0.399    0.399
 scf_env_initial_rho_setup            1  4.0    0.000    0.000    0.389    0.389
 transfer_pw2rs_10                   96 12.0    0.112    0.128    0.341    0.386
 mp_cart_create                     747  9.7    0.269    0.357    0.269    0.357
 pw_zero                            572 10.3    0.326    0.355    0.326    0.355
 mp2_eri_3c_integrate                 1  7.0    0.001    0.002    0.112    0.337
 integrate_set_3c                  1996  8.0    0.099    0.306    0.111    0.336
 dbt_pgrid_create_expert             84 10.8    0.000    0.000    0.241    0.328
 mp_rank_compare                   2007 12.9    0.284    0.305    0.284    0.305
 qs_energies_init_hamiltonians        1  3.0    0.000    0.000    0.301    0.301
 build_core_hamiltonian_matrix        1  4.0    0.000    0.000    0.296    0.296
 overlap_condnum                      1  5.0    0.000    0.000    0.294    0.295
 arnoldi_conjugate_gradient           5  6.0    0.006    0.008    0.274    0.274
 xz_to_yz                           192 11.0    0.010    0.021    0.206    0.247
 cp_fm_syrk                           3  7.0    0.242    0.244    0.242    0.244
 mp_sum_l                          1062  6.4    0.203    0.239    0.203    0.239
 offload_free_buffer                104  8.5    0.178    0.232    0.178    0.232
 yz_to_xz                           192 14.0    0.013    0.021    0.177    0.231
 calculate_dm_sparse                 95  6.0    0.000    0.000    0.213    0.229
 cp_dbcsr_plus_fm_fm_t               95  7.0    0.001    0.001    0.212    0.228
 integrate_four_center_load          96 10.0    0.000    0.000    0.166    0.202
 hfx_load_balance                     1 11.0    0.000    0.000    0.165    0.201
 fft_wrap_pw1pw2_10                 192 10.5    0.001    0.002    0.161    0.200
 mp2_main_alloc_hfx                   1  4.0    0.110    0.189    0.110    0.189
 hfx_load_balance_range               1 12.0    0.000    0.000    0.152    0.188
 copy_dbcsr_to_fm                   122  6.3    0.002    0.002    0.138    0.178
 create_A                             1  8.0    0.004    0.008    0.169    0.177
 dbcsr_multiply_generic             132  8.1    0.004    0.004    0.165    0.174
 cp_fm_cholesky_decompose           102  9.0    0.158    0.169    0.158    0.169
 dbcsr_sym_matrix_vector_mult      2075  7.0    0.015    0.016    0.156    0.169
 dbt_total                            8  8.0    0.000    0.000    0.168    0.168
 cp_fm_cholesky_invert              101  8.0    0.160    0.165    0.160    0.165
 dbt_contract                         4  9.0    0.000    0.000    0.154    0.159
 mp_alltoall_i22                    440  9.1    0.118    0.158    0.118    0.158
 mp_irecv_dv                      33958 11.7    0.038    0.157    0.038    0.157
 dbcsr_complete_redistribute        316  8.4    0.009    0.012    0.126    0.157
 create_qs_kind_set                   1  2.0    0.000    0.000    0.156    0.156
 read_qs_kind                         5  3.0    0.059    0.081    0.156    0.156
 mp_sum_i                            21  9.7    0.080    0.154    0.080    0.154
 restraint_control                    1  2.0    0.000    0.000    0.080    0.154
 calculate_rho0_atom                480  9.0    0.138    0.147    0.138    0.147
 create_B                             1  8.0    0.000    0.000    0.123    0.143
 mp_isend_dv                      34088 11.7    0.072    0.140    0.072    0.140
 compute_Erpa_by_freq_int           100  8.0    0.000    0.001    0.135    0.136
 write_mo_set_to_restart             95  5.0    0.001    0.051    0.050    0.132
 fm_general_add_bse                   5 10.2    0.000    0.000    0.107    0.123
 qs_init_subsys                       1  2.0    0.002    0.002    0.117    0.118
 dbt_tas_multiply                     8 11.5    0.000    0.000    0.116    0.116
 dbt_tas_total                        8 12.5    0.001    0.001    0.116    0.116
 qs_env_setup                         1  3.0    0.000    0.000    0.113    0.113
 qs_env_rebuild_pw_env                2  3.5    0.000    0.000    0.112    0.112
 pw_env_rebuild                       1  5.0    0.000    0.000    0.112    0.112
 dbcsr_desymmetrize_deep            124  7.3    0.003    0.003    0.069    0.107
 scale_and_distribute               192 10.0    0.071    0.102    0.071    0.102
 vxc_of_r_new                       380  9.0    0.000    0.008    0.005    0.100
 parser_read_line                 24337  4.0    0.004    0.004    0.097    0.097
 parser_read_line_low                39  5.0    0.003    0.022    0.093    0.093
 broadcast_input_information         39  6.0    0.012    0.013    0.090    0.092
 rs_scatter_matrices                 96  7.0    0.001    0.002    0.004    0.090
 integrate_four_center_getP          96 10.0    0.016    0.018    0.083    0.089
 postprocess_bse                      1  9.0    0.000    0.000    0.077    0.087
 mp_isendrecv_dv                  73344 12.0    0.059    0.084    0.059    0.084
 pw_grid_setup                        4  6.0    0.000    0.000    0.084    0.084
 pw_grid_setup_internal               4  7.0    0.001    0.002    0.084    0.084
 scf_post_calculation_gpw             1  3.0    0.000    0.000    0.082    0.082
 write_available_results              1  4.0    0.000    0.000    0.082    0.082
 write_mo_free_results                1  5.0    0.002    0.003    0.082    0.082
 cp_fm_symm                          96  7.0    0.077    0.081    0.077    0.081
 write_mo_set_low                     5  6.0    0.000    0.000    0.049    0.081
 cp_fm_write_unformatted              5  7.0    0.049    0.080    0.049    0.081
 copy_fm_to_dbcsr                   194  8.0    0.000    0.000    0.067    0.080
 cube_transpose_2                   192 11.0    0.003    0.004    0.038    0.076
 fm_general_add_bse_5_comm_buff       5 11.2    0.000    0.000    0.057    0.073
 communicate_buffer                   5 12.2    0.000    0.000    0.057    0.073
 dbcsr_rep_row_to_rep_col_vec      2075  8.0    0.005    0.005    0.029    0.072
 dbcsr_add_d                       3193  7.1    0.002    0.002    0.015    0.072
 integrate_four_center_dist_KS       96 10.0    0.015    0.018    0.071    0.072
 dbcsr_col_vec_to_rep_row          2075  8.0    0.007    0.008    0.053    0.072
 dbcsr_add_anytype                 3193  8.1    0.003    0.010    0.014    0.071
 multiply_cannon                    132  9.1    0.007    0.008    0.059    0.067
 mult_B_with_W                        1  8.0    0.000    0.000    0.052    0.067
 cp_fm_uplo_to_full                 205  8.5    0.047    0.064    0.047    0.064
 mp_bcast_i_src                     156  7.0    0.052    0.064    0.052    0.064
 make_m2s                           264  9.1    0.003    0.003    0.057    0.061
 mp_bcast_b_src                     197  7.5    0.049    0.060    0.049    0.060
 pw_scale                           381  9.5    0.046    0.058    0.046    0.058
 dbcsr_finalize                    4920 10.7    0.005    0.015    0.021    0.055
 cube_transpose_1                   192 14.0    0.003    0.008    0.029    0.053
 pw_grid_sort                         4  8.0    0.035    0.036    0.048    0.051
 dbt_tas_dbm                          8 13.5    0.000    0.000    0.050    0.050
 multiply_cannon_loop               132 10.1    0.006    0.007    0.042    0.048
 dbm_multiply                         8 15.5    0.043    0.047    0.043    0.047
 external_control                    96  5.0    0.000    0.042    0.045    0.045
 cp_fm_redistribute_start           101  8.0    0.000    0.000    0.027    0.045
 get_oscillator_strengths             1 10.0    0.000    0.000    0.044    0.044
 dbt_tas_estimate_result_nze          4 12.0    0.001    0.001    0.042    0.042
 xc_pw_smooth                        95 10.0    0.000    0.000    0.030    0.041
 truncate_BSE_matrices                1  8.0    0.000    0.000    0.014    0.040
 dbt_copy                            12 10.1    0.000    0.000    0.033    0.040
 dbt_tas_mm_1N                        6 14.5    0.000    0.000    0.035    0.039
 make_images                        264 10.1    0.007    0.008    0.035    0.039
 hirshfeld_integration                1  6.0    0.001    0.004    0.037    0.037
 calculate_hirshfeld_normalizat       1  6.0    0.001    0.004    0.034    0.036
 dbcsr_merge_all                   4010 11.4    0.008    0.032    0.012    0.035
 dbt_reshape                          8 11.6    0.004    0.007    0.027    0.033
 mp_bcast_dv                       2075  9.0    0.022    0.032    0.022    0.032
 mp_waitall_2                        54 15.7    0.025    0.031    0.025    0.031
 mp_maxloc_dv                      1531  1.0    0.031    0.031    0.031    0.031
 mp_sum_iv                          155  9.9    0.012    0.030    0.012    0.030
 abc_contract                      1996  9.0    0.012    0.030    0.012    0.030
 mp_alltoall_i                       42 13.9    0.018    0.029    0.018    0.029
 mp_bcast_am_src                     39  7.0    0.024    0.028    0.025    0.029
 get_multipoles_mo                    1 10.0    0.000    0.000    0.019    0.029
 dbcsr_iterator_start             27466  8.9    0.016    0.022    0.020    0.028
 dbcsr_copy                        9071  7.6    0.013    0.016    0.023    0.026
 dbt_remap                            8 10.0    0.001    0.001    0.025    0.025
 mp_cart_sub                        250  8.4    0.024    0.025    0.024    0.025
 compute_max_radius                   1  6.0    0.024    0.025    0.024    0.025
 dbt_communicate_buffer               8 12.6    0.001    0.001    0.020    0.024
 mp_isend_im2                       653 13.2    0.009    0.023    0.009    0.023
 dbt_tas_distribution_new           100 11.9    0.013    0.014    0.023    0.023
 fm_general_add_bse_2_comm_entr       5 11.2    0.000    0.000    0.012    0.023
 create_integ_mat                     4  6.0    0.001    0.001    0.020    0.022
 mixing_init                          1  5.0    0.020    0.021    0.021    0.021
 dbt_tas_replicate                    8 13.5    0.007    0.009    0.019    0.020
 calc_fm_mat_S_rpa                  100  9.0    0.002    0.020    0.002    0.020
 dbt_distribution_new_expert         76 10.1    0.001    0.001    0.020    0.020
 mp_comm_split_direct                48 14.5    0.015    0.020    0.015    0.020
 array2fm                             4  7.0    0.000    0.000    0.016    0.020
 multiply_cannon_metrocomm3        2432 11.1    0.003    0.004    0.011    0.020
 dbcsr_create_new                 11873  9.0    0.013    0.014    0.018    0.019
 fm_general_add_bse_1_setup           5 11.2    0.014    0.019    0.014    0.019
 make_images_sizes                  264 11.1    0.000    0.000    0.016    0.019
 mp_alltoall_i44                    264 12.1    0.016    0.019    0.016    0.019
 self_consistency_check              95  5.0    0.000    0.000    0.010    0.017
 cp_sm_mix                           95  6.0    0.000    0.000    0.010    0.017
 mp_max_d                            97  6.9    0.010    0.017    0.010    0.017
 dbcsr_iterator_stop              27466  8.9    0.011    0.013    0.013    0.016
 -------------------------------------------------------------------------------

 The number of warnings for this run is : 1
 
 -------------------------------------------------------------------------------
  **** **** ******  **  PROGRAM ENDED AT                 2025-03-20 08:31:17.082
 ***** ** ***  *** **   PROGRAM RAN ON                     n2cn0859.ab2021.local
 **    ****   ******    PROGRAM RAN BY                                  metdyn02
 ***** **    ** ** **   PROGRAM PROCESS ID                                154838
  **** **  *******  **  PROGRAM STOPPED IN /scratch/hpc-prf-metdyn/metdyn02_Remi
                                           /10_MOL/05_MOL/aUKBqsEOTmq69kFe5R_nOg
                                           /5k_set_final_qzvp/VUZHAA/SZV/GW+BSE/
                                           1e-4
